44
s3_esm1_f12: ligand in its bound pose, the reference for ligand strain
C    1.593    -7.674    -6.979
C    2.304    -7.202    -5.711
C    2.705    -5.747    -5.809
C    3.367    -5.252    -4.544
C    3.818    -3.794    -4.568
C    4.558    -3.519    -3.259
C    5.861    -2.833    -3.356
O    2.696    -2.923    -4.583
C    2.22    -2.337    -5.73
O    2.743    -2.495    -6.798
C    1.007    -1.513    -5.535
C    0.509    -1.428    -4.303
C    -0.723    -0.686    -3.933
C    -1.622    -0.214    -4.873
C    -2.771    0.459    -4.449
C    -3.012    0.662    -3.1
O    -4.134    1.313    -2.728
C    -4.388    1.633    -1.367
C    -2.11    0.186    -2.176
C    -0.973    -0.485    -2.593
H    1.2945403372372537    -8.719812424184205    -6.917516900157983
H    0.6878599799601939    -7.087654185183299    -7.159143416037239
H    2.2421469918505927    -7.566628722149859    -7.85121077929633
H    1.6491959595683394    -7.342666282537924    -4.8461023815594775
H    3.189986903500315    -7.8173945341410285    -5.530884255082865
H    3.381407690620533    -5.6020252048727945    -6.6590528003264655
H    1.8120208098451993    -5.145265889485446    -6.01915168213035
H    2.6961813453377403    -5.381462722514894    -3.687817871854226
H    4.257182189525227    -5.856157072383443    -4.346417597940733
H    4.43793234325991    -3.590157261519807    -5.445018044711604
H    3.8759281769291944    -2.9436263143526245    -2.6251345982446597
H    4.69594685401229    -4.466064216707344    -2.7333419730743094
H    6.272250398692309    -2.6059025460166705    -2.3713984608183067
H    6.602683079643493    -3.4394422461505205    -3.881600923584282
H    5.783623148978273    -1.8944513996117422    -3.9079055497076705
H    0.5891899425694485    -1.0554688502831127    -6.420577156524863
H    1.0181295019349017    -1.9428436433142242    -3.4976331567828023
H    -1.4857040353061899    -0.3956094373918003    -5.932029338336198
H    -3.495645978124857    0.8059050862934193    -5.175220239461758
H    -4.422306043075841    0.7443197068198875    -0.7360008247544565
H    -3.6083513905645135    2.3114186686539866    -1.0278719633375153
H    -5.349284306127933    2.143244854473273    -1.359146883116642
H    -2.3777636500118846    0.24617903250772732    -1.1408573752619477
H    -0.2958775259067847    -0.9006453247764451    -1.8526068814153922
