44
s3_esm1_f8: ligand in its bound pose, the reference for ligand strain
C    1.238    -6.812    -6.065
C    -0.014    -6.347    -5.344
C    0.082    -4.925    -4.907
C    -1.127    -4.374    -4.269
C    -0.967    -3.295    -3.237
C    -2.268    -2.623    -3.117
C    -2.763    -1.338    -3.181
O    0.126    -2.512    -3.626
C    0.566    -1.386    -4.082
O    -0.168    -0.748    -4.777
C    1.969    -0.963    -3.785
C    2.991    -1.798    -3.708
C    4.395    -1.367    -3.444
C    4.69    -0.128    -2.883
C    6.019    0.239    -2.639
C    7.06    -0.622    -2.953
O    8.336    -0.227    -2.686
C    9.451    -1.093    -2.882
C    6.765    -1.85    -3.516
C    5.437    -2.214    -3.757
H    2.007730857234476    -7.069122705147588    -5.3528916812287015
H    1.0248748185166274    -7.708775933903347    -6.653204045595102
H    1.6049406977672482    -6.055722093701045    -6.751804328939314
H    -0.8840548305851385    -6.461963134649302    -6.000465917337769
H    -0.21812341184007716    -6.991428512281819    -4.481452668133963
H    0.9367913367332235    -4.839852321971013    -4.219982567298567
H    0.3658833565304879    -4.300891952979423    -5.760989173494911
H    -1.7757139711644068    -3.9853324684317757    -5.058543287453607
H    -1.7121981025927264    -5.173531221335941    -3.7964809814670257
H    -0.6501937051226976    -3.7183221710479843    -2.2813447580517714
H    -2.927209288980258    -3.1948079275165635    -3.7795422734699917
H    -2.62734838512416    -3.0231572572739847    -2.146620914880548
H    -2.2597723631535165    -0.6061140390982223    -2.539047159008592
H    -2.6981170108652552    -0.8869330942007554    -4.177027492839388
H    -3.811379769720921    -1.3320163493047543    -2.912066770339983
H    2.096141974338427    0.11251290671320612    -3.7688352905949216
H    2.814288723185482    -2.8649589420758823    -3.8206017928377785
H    3.90403249057921    0.5593081379938052    -2.5949930440475564
H    6.241834835567231    1.182616179485577    -2.1604214222965505
H    9.317366124847489    -2.044016877424822    -2.355336307390335
H    9.62347973605725    -1.2946982021125644    -3.9441022943996344
H    10.307502179569953    -0.5746596359390501    -2.463040812001494
H    7.568279076372265    -2.522131620377081    -3.785703290450917
H    5.177575619720803    -3.1845416251547287    -4.108415890907979
