44
s3_esm1_control: ligand in its bound pose, the reference for ligand strain
C    -7.624    2.263    0.25
C    -6.276    1.665    0.62
C    -5.149    2.642    0.398
C    -3.81    2.012    0.662
C    -2.615    2.896    0.303
C    -1.798    2.181    -0.76
C    -0.337    2.493    -0.792
O    -1.825    3.031    1.475
C    -1.566    4.24    2.007
O    -2.068    5.225    1.556
C    -0.591    4.237    3.135
C    -0.05    5.406    3.539
C    0.976    5.47    4.598
C    1.353    4.36    5.306
C    2.328    4.459    6.284
C    2.929    5.662    6.56
O    3.877    5.702    7.524
C    4.65    6.873    7.738
C    2.541    6.773    5.849
C    1.568    6.678    4.875
H    -7.883664527037907    3.084562164219445    0.9081136611217885
H    -7.58808385944721    2.6691511744876633    -0.7645084783359675
H    -8.41232310381336    1.5032971602322434    0.2731936514904009
H    -6.285054729565917    1.3440832684909176    1.6701048828550844
H    -6.094936517878596    0.7606240167238438    0.02097637578733085
H    -5.183759904921703    2.988881372847237    -0.6407521892011301
H    -5.294732122286079    3.534466408857848    1.0074773414254965
H    -3.727759449048617    1.7530784932214525    1.7234641661004861
H    -3.7500159163508506    1.0691334974708313    0.10668688490190051
H    -2.929280143156014    3.889030512896911    -0.018774281915053093
H    -1.9108390030668145    1.1016522733373124    -0.6209460872105874
H    -2.2622065227874426    2.3970314646693676    -1.729718093594419
H    0.1389094069850838    2.1799650447528087    0.14410055020861606
H    0.14606102485384145    1.9926791583645034    -1.6210852456855263
H    -0.14401393189895453    3.5637862784412873    -0.890596760991476
H    -0.2916408067055356    3.2745265720706946    3.5257061585365124
H    -0.37436214495577236    6.323348629416666    3.060721822813734
H    0.8971403582756241    3.3959367149969664    5.131304249662312
H    2.6388019632786484    3.58481317963176    6.844960603255855
H    5.3985129115154455    6.595317594963    8.47335505234613
H    5.145474208875801    7.193609653651689    6.8179156022063525
H    4.038755729399909    7.69204354192086    8.125559074461489
H    2.993495323152103    7.735323511076349    6.04748454464939
H    1.272743887780042    7.561519275203354    4.322370640026789
