44
s3_esm1_f4: ligand in its bound pose, the reference for ligand strain
C    9.419    2.603    -4.331
C    8.023    2.847    -4.814
C    6.895    2.53    -3.885
C    6.822    1.218    -3.304
C    5.716    0.229    -3.204
C    4.32    0.53    -3.66
C    3.818    -0.8    -4.269
O    5.573    -0.304    -1.943
C    5.938    -0.17    -0.69
O    5.929    0.938    -0.201
C    6.3    -1.399    0.092
C    6.958    -1.31    1.243
C    7.37    -2.471    2.069
C    8.394    -2.295    2.977
C    8.826    -3.352    3.77
C    8.228    -4.595    3.671
O    8.683    -5.59    4.462
C    7.977    -6.827    4.598
C    7.209    -4.766    2.77
C    6.784    -3.711    1.974
H    9.657411808138276    3.19367153636798    -3.4426835817851487
H    9.594244359105964    1.558219960596352    -4.061953221262966
H    10.148598781919079    2.8620923665399505    -5.099905707117878
H    7.921531286653055    3.896149442010429    -5.107367177534308
H    7.876846725507046    2.273755705679395    -5.741314857180081
H    6.890088802419781    3.278190943637315    -3.08232097286489
H    5.9752967466980875    2.7660697772930307    -4.443364767673093
H    7.632037710492484    0.6361750028504769    -3.766837277284564
H    7.201991681847615    1.3122643473259297    -2.282741019515622
H    6.037192664807911    -0.6261558703013061    -3.806047607181193
H    3.707744345468616    0.8516093883958272    -2.8201694896172245
H    4.300987047193656    1.3127147251571192    -4.420824076270708
H    3.9413455277594243    -1.6097308760900804    -3.544982586758692
H    2.765768347457753    -0.7579470607709974    -4.557028557845031
H    4.400377362306599    -1.043156781842421    -5.158751985446132
H    6.053521836780506    -2.355021834965435    -0.35867342556573434
H    7.23512963518429    -0.3236696642400834    1.6030179032237433
H    8.872758755989471    -1.3287502527066413    3.079664682011858
H    9.620645992920949    -3.2075960550432763    4.491222828309985
H    8.522764419818973    -7.388479348838464    5.349609058682525
H    6.950435628214265    -6.659843499532365    4.936230556271161
H    7.973864375193656    -7.386922924520763    3.6591806236270514
H    6.701825523086186    -5.720604357222694    2.6958397491861037
H    5.935723866383783    -3.8568897751577156    1.312163146576229
