44
s3_esm2_f8: ligand in its bound pose, the reference for ligand strain
C    2.213    -2.268    8.605
C    1.254    -1.111    8.383
C    0.978    -0.944    6.93
C    -0.248    -0.142    6.709
C    -0.719    -0.248    5.293
C    0.359    0.217    4.352
C    -0.16    0.789    3.068
O    -1.837    0.577    5.096
C    -3.07    0.064    5.229
O    -3.285    -1.073    5.554
C    -4.099    1.036    4.927
C    -3.725    2.157    4.34
C    -4.618    3.267    4.01
C    -4.119    4.301    3.264
C    -4.898    5.372    2.94
C    -6.195    5.428    3.353
O    -6.994    6.467    3.056
C    -6.598    7.392    2.061
C    -6.706    4.399    4.105
C    -5.919    3.313    4.436
H    2.4780305534528124    -2.396905888816705    9.654935170387743
H    1.7659338114131171    -3.2020823103021714    8.260972729105536
H    3.1409318341905204    -2.121481030967197    8.04420082725907
H    0.3214299407210532    -1.3145482147420076    8.914886790265482
H    1.6575007293513933    -0.18680009012746093    8.81017127263699
H    1.8481191987014656    -0.5088838434800104    6.428352293064262
H    0.8352669050602484    -1.9364928278658695    6.483448376820777
H    -1.0448224723852217    -0.49263902500651335    7.370556338200592
H    -0.08112043342216255    0.9182999356947802    6.939442078781979
H    -1.005891656259613    -1.2800427830906242    5.0697936614990855
H    0.9619774304934101    0.9897088331534798    4.848439129262127
H    1.0358566380833396    -0.6241525770036452    4.169810379998461
H    -0.6398037608638002    1.710945624079679    3.359248757535501
H    0.6304316066618649    1.018178221284819    2.3493949968411805
H    -0.9063922349339434    0.1579890233719018    2.582830296609064
H    -5.115677964620108    0.7646251259944127    5.167113270420989
H    -2.6817382105101184    2.3015142888235407    4.095623730925755
H    -3.107834547467792    4.246598270212019    2.890688844249594
H    -4.478544864564089    6.1671160657204895    2.337540634897592
H    -5.6937981594251985    7.927057617172033    2.337261865091135
H    -6.464175350493568    6.889150548109711    1.0981214527273873
H    -7.422637774220681    8.095931873684563    1.9700930986905134
H    -7.716917018433466    4.476013600783585    4.463481882691788
H    -6.350876581024948    2.527277601360432    5.04390494918063
