44
s3_esm2_control: ligand in its bound pose, the reference for ligand strain
C    2.714    7.953    8.313
C    2.431    6.468    8.471
C    3.537    5.634    7.865
C    3.253    4.168    8.015
C    4.248    3.288    7.279
C    3.655    1.912    7.082
C    4.668    0.852    6.792
O    5.427    3.158    8.035
C    6.607    3.465    7.474
O    6.657    4.051    6.437
C    7.807    2.998    8.206
C    9.017    3.071    7.615
C    10.263    2.575    8.225
C    10.24    1.819    9.36
C    11.42    1.364    9.908
C    12.625    1.654    9.33
O    13.755    1.187    9.909
C    15.013    1.453    9.318
C    12.643    2.42    8.188
C    11.47    2.872    7.641
H    3.197127783275044    8.366380378096736    9.199839394297197
H    3.3841818684278855    8.134084798959142    7.46936801199656
H    1.806508239348413    8.533326064519974    8.139877089708577
H    2.297108352145418    6.206768618949002    9.523972540681463
H    1.4920679889012372    6.205729327327677    7.970021442291782
H    3.6342599155352695    5.881133022007881    6.803087117826777
H    4.49759213135591    5.883209319657893    8.325467893039994
H    3.240828268420774    3.869025933185997    9.0678073536573
H    2.2552050689038703    3.952926722569031    7.610523440568916
H    4.505118612895399    3.7270475898828637    6.313307832225302
H    3.081747042611936    1.6588539819902792    7.983741210913192
H    2.9232119594543766    1.9945075861010761    6.270428606667726
H    4.877846247104039    0.2155588801076247    7.652205496197036
H    4.3840278564285065    0.21983578827566505    5.954917866105208
H    5.626672491136537    1.2814340131066895    6.497907329653618
H    7.659467480530568    2.5672062915270524    9.186011950786863
H    9.077999913056258    3.532631491304018    6.634993437169031
H    9.31047473300688    1.5503298415438775    9.841099715461022
H    11.410591170522864    0.7586111768605142    10.806126178478229
H    15.748473064100573    0.9745250453679549    9.959707313222097
H    15.081722395179739    1.0280789668804582    8.312730579143272
H    15.217353880740882    2.528064296049979    9.27513554439517
H    13.577426780096756    2.674069212835726    7.708110017817516
H    11.49869612059824    3.4710531182228492    6.738435010722366
