44
s3_esm2_f4: ligand in its bound pose, the reference for ligand strain
C    -1.171    5.718    6.963
C    -2.277    4.705    7.275
C    -2.039    3.415    6.531
C    -3.152    2.436    6.779
C    -3.081    1.255    5.821
C    -4.474    0.894    5.362
C    -4.735    -0.58    5.267
O    -2.485    0.154    6.482
C    -1.228    -0.225    6.134
O    -0.513    0.479    5.474
C    -0.833    -1.552    6.597
C    -1.527    -2.181    7.538
C    -1.307    -3.598    7.901
C    -0.542    -4.43    7.109
C    -0.382    -5.759    7.456
C    -0.974    -6.266    8.574
O    -0.803    -7.572    8.874
C    -1.661    -8.199    9.813
C    -1.733    -5.434    9.371
C    -1.893    -4.107    9.029
H    -1.2897150561542896    6.6415148635608325    7.529405595335047
H    -0.19181146324237378    5.300862522171916    7.201232232194055
H    -1.1732360179330814    5.971066673301147    5.900342505711667
H    -2.313785873530536    4.5131948872845715    8.351663399397978
H    -3.2528508581285784    5.116741986009997    6.998935834278995
H    -1.9857033082798534    3.6285902632958433    5.457417739637966
H    -1.0693840509608352    2.9858071496725995    6.799817021818249
H    -3.1498632748873647    2.058106586680441    7.804352904708358
H    -4.101864562470405    2.958853526149467    6.6344464010221325
H    -2.4509005957789    1.5049664138540728    4.966808730613171
H    -5.201372508939668    1.3104230415518514    6.063619923084043
H    -4.6612690183447    1.3905044054255788    4.407909303222246
H    -4.613248856135908    -1.0661948687048424    6.234047274308152
H    -5.750065750114505    -0.7769066415416013    4.910896800226004
H    -4.046001707843118    -1.083813792953661    4.582239551728444
H    0.052732018641016086    -1.9496257031952566    6.119181140242271
H    -2.3478448701218366    -1.6666202969602566    8.025912221451916
H    -0.08735146932492005    -4.077187805941986    6.192581684421559
H    0.2236557978926837    -6.410958661095408    6.838323316289163
H    -1.5050391558831655    -7.820305585584731    10.82522123386097
H    -2.7114363039348355    -8.069188520635372    9.52858674993729
H    -1.3989563360044759    -9.25268771821169    9.793550232363263
H    -2.1737864192194265    -5.79883106283109    10.289664740785694
H    -2.438820179722999    -3.444246040317233    9.692161745519845
