44
s3_orig_control: ligand in its bound pose, the reference for ligand strain
C    9.233    1.485    -3.473
C    9.969    0.216    -3.138
C    9.242    -0.584    -2.086
C    10.031    -1.762    -1.631
C    9.337    -2.637    -0.617
C    10.28    -3.698    -0.066
C    11.239    -3.133    0.976
O    8.837    -1.836    0.44
C    7.627    -2.059    0.923
O    6.954    -2.946    0.484
C    7.21    -1.201    2.06
C    7.373    -1.618    3.299
C    6.985    -0.845    4.514
C    6.335    0.365    4.443
C    6.026    1.069    5.603
C    6.354    0.564    6.84
O    6.031    1.305    7.953
C    6.37    0.789    9.228
C    6.992    -0.649    6.909
C    7.298    -1.35    5.754
H    9.127464812844648    2.118611795812231    -2.58722424778805
H    9.742324542410268    2.0717692287764917    -4.239999758932473
H    8.224710640690775    1.2671411764894691    -3.835037280472229
H    10.09951087853254    -0.3937685980576629    -4.03787873830605
H    10.97804478361032    0.45395761498813575    -2.782042639071448
H    9.015196427416889    0.061925867857545586    -1.2323229004258105
H    8.270818544466639    -0.907544258972792    -2.4796350970664958
H    10.270859684642444    -2.403344160625121    -2.4858716869405093
H    10.99220817713095    -1.4192008633310864    -1.229895792963119
H    8.484723971585456    -3.120695429661056    -1.09730524565469
H    9.698357589965113    -4.51135225218153    0.373352317239338
H    10.8299000460979    -4.1207405438043585    -0.9103448680755389
H    10.724750137152553    -2.9400080885118256    1.917037448565736
H    12.051689190609022    -3.8319078848401373    1.178566055574487
H    11.687189862205047    -2.192174600934252    0.6530540362168342
H    6.787462595225689    -0.2324552187140311    1.8156382131985471
H    7.814981465208176    -2.594213692581305    3.48107770018317
H    6.020110669067245    0.7813500649066529    3.492269563594146
H    5.459209341066023    1.9873037345926898    5.561150223459582
H    6.033705568396067    1.5435449348574504    9.937326895802862
H    5.857274717775297    -0.154993017661719    9.437495020429308
H    7.452868717879766    0.6500799255022709    9.32717575765731
H    7.219496338902751    -1.0946383597836755    7.866474162776544
H    7.7824302340578795    -2.31694283547563    5.834766247956864
