48
IE = -2.334 kcal/mol
C    2.8035907241379308    -0.4830889310344828    0.31171544827586206
C    1.7467487241379311    -1.1601059310344828    0.919205448275862
C    0.4922377241379311    -0.5957459310344828    0.9020494482758621
C    0.23824372413793113    0.6453840689655173    0.3159804482758621
C    1.3068487241379312    1.3102510689655171    -0.2873885517241379
C    2.5812027241379307    0.7448800689655172    -0.2971815517241379
H    3.385087724137931    1.2793680689655171    -0.7846865517241379
C    -1.1168162758620688    1.2651360689655171    0.4203244482758621
O    -1.2606222758620689    2.4213810689655175    0.741730448275862
C    -2.313361275862069    0.40184506896551725    0.1452914482758621
C    -2.251433275862069    -0.7107779310344828    -0.6882195517241378
C    -3.534515275862069    0.7684500689655173    0.705222448275862
C    -3.394730275862069    -1.4473629310344829    -0.9568835517241381
H    -1.3101642758620689    -0.9932989310344829    -1.140039551724138
C    -4.671713275862069    0.02369006896551723    0.4503834482758621
H    -3.5719842758620692    1.6455220689655172    1.336883448275862
C    -4.603332275862068    -1.0852739310344828    -0.3828185517241379
H    -3.341309275862069    -2.3041529310344826    -1.615228551724138
H    -5.615068275862068    0.30802206896551726    0.8972854482758621
H    -5.494159275862069    -1.6648629310344827    -0.5867205517241378
H    1.933219724137931    -2.1131469310344824    1.391999448275862
O    4.004751724137932    -1.0934609310344827    0.3572304482758621
C    5.113187724137932    -0.45214493103448283    -0.22870755172413793
H    5.963530724137931    -1.1085179310344828    -0.06605955172413791
H    4.9706357241379315    -0.3100049310344828    -1.303546551724138
H    5.310409724137932    0.5144450689655172    0.24278844827586207
O    1.0733537241379312    2.4912180689655172    -0.8947645517241378
H    1.882667724137931    2.8245570689655173    -1.2809085517241379
H    -0.32650727586206885    -1.1222039310344827    1.3750634482758621
C    -6.270184062442015    -3.7900460092059363    0.9725589924157519
C    -7.462888321390824    -3.630244745618404    0.2560788551756118
C    -8.672413359354946    -3.5034634991743268    0.9653304735662755
C    -8.718164217589631    -3.497616498496527    2.360292643590802
C    -7.525316854270244    -3.631857897823992    3.0382859437359624
C    -6.3104401273978405    -3.7913167521588518    2.3495941650904686
H    -5.327379429037799    -3.9050287009747584    0.45179031570971295
H    -9.655542842701632    -3.3947854799121893    2.8923066533192956
H    -7.526173438669544    -3.6162211349741984    4.121122988288702
H    -5.396678612761425    -3.9199239360971045    2.9144475432720123
C    -7.776823047589589    -3.5864258876284563    -1.149918945259995
C    -9.129560390402242    -3.454579461575495    -1.2284860394015331
H    -9.767809226033076    -3.394963317662652    -2.096256841978661
N    -9.678093157996168    -3.398610243873512    0.03614042221916327
H    -10.660244862958924    -3.3774317002797023    0.23631242324793372
C    -6.796830853340427    -3.6310931816865715    -2.283525777752457
H    -6.675275936679206    -2.649729694093448    -2.747820333702663
H    -5.812385408347185    -3.943193364765604    -1.9318468879107087
H    -7.101431988569606    -4.3326959122865505    -3.060513269750069
