48
IE = 1.833 kcal/mol
C    2.8035907241379308    -0.4830889310344828    0.31171544827586206
C    1.7467487241379311    -1.1601059310344828    0.919205448275862
C    0.4922377241379311    -0.5957459310344828    0.9020494482758621
C    0.23824372413793113    0.6453840689655173    0.3159804482758621
C    1.3068487241379312    1.3102510689655171    -0.2873885517241379
C    2.5812027241379307    0.7448800689655172    -0.2971815517241379
H    3.385087724137931    1.2793680689655171    -0.7846865517241379
C    -1.1168162758620688    1.2651360689655171    0.4203244482758621
O    -1.2606222758620689    2.4213810689655175    0.741730448275862
C    -2.313361275862069    0.40184506896551725    0.1452914482758621
C    -2.251433275862069    -0.7107779310344828    -0.6882195517241378
C    -3.534515275862069    0.7684500689655173    0.705222448275862
C    -3.394730275862069    -1.4473629310344829    -0.9568835517241381
H    -1.3101642758620689    -0.9932989310344829    -1.140039551724138
C    -4.671713275862069    0.02369006896551723    0.4503834482758621
H    -3.5719842758620692    1.6455220689655172    1.336883448275862
C    -4.603332275862068    -1.0852739310344828    -0.3828185517241379
H    -3.341309275862069    -2.3041529310344826    -1.615228551724138
H    -5.615068275862068    0.30802206896551726    0.8972854482758621
H    -5.494159275862069    -1.6648629310344827    -0.5867205517241378
H    1.933219724137931    -2.1131469310344824    1.391999448275862
O    4.004751724137932    -1.0934609310344827    0.3572304482758621
C    5.113187724137932    -0.45214493103448283    -0.22870755172413793
H    5.963530724137931    -1.1085179310344828    -0.06605955172413791
H    4.9706357241379315    -0.3100049310344828    -1.303546551724138
H    5.310409724137932    0.5144450689655172    0.24278844827586207
O    1.0733537241379312    2.4912180689655172    -0.8947645517241378
H    1.882667724137931    2.8245570689655173    -1.2809085517241379
H    -0.32650727586206885    -1.1222039310344827    1.3750634482758621
N    8.285921190088803    1.5759260403269655    -1.9237722807912458
H    8.500520989535255    2.094913436580725    -1.089685961972316
H    8.018604394936448    2.0940233689414076    -2.743287484217823
C    8.469032433289577    0.2564580795822215    -1.969515855630156
N    8.371278019212134    -0.3826341752957962    -3.1374173270698384
H    8.370320781734721    -1.387184958469021    -3.185746307095294
H    8.306623452097048    0.1240998688198813    -4.002266396118379
N    8.72666988741268    -0.4159197031514871    -0.8604965535494059
H    8.96641344845229    -1.3915888037867965    -0.9475867469222176
C    8.689853673976012    0.1571334946348494    0.49044801734353616
H    9.507656016746687    0.8737674422791616    0.612061981697256
H    7.738286785573206    0.6797190710092218    0.620243027868774
C    8.811366778483052    -0.9500985051691658    1.5242005235854341
H    9.760266522378203    -1.473482732156351    1.3798363357365189
H    8.009747561915667    -1.6749969927653119    1.359425557363917
C    8.732873934258217    -0.3943272326450467    2.939415273382394
H    8.762627762172874    -1.1969171433069115    3.673099874200513
H    9.568529289574636    0.27476816687460126    3.1474375577759117
H    7.802945441084153    0.15557458029974294    3.0920871398560954
