48
IE = -4.947 kcal/mol
C    2.8035907241379308    -0.4830889310344828    0.31171544827586206
C    1.7467487241379311    -1.1601059310344828    0.919205448275862
C    0.4922377241379311    -0.5957459310344828    0.9020494482758621
C    0.23824372413793113    0.6453840689655173    0.3159804482758621
C    1.3068487241379312    1.3102510689655171    -0.2873885517241379
C    2.5812027241379307    0.7448800689655172    -0.2971815517241379
H    3.385087724137931    1.2793680689655171    -0.7846865517241379
C    -1.1168162758620688    1.2651360689655171    0.4203244482758621
O    -1.2606222758620689    2.4213810689655175    0.741730448275862
C    -2.313361275862069    0.40184506896551725    0.1452914482758621
C    -2.251433275862069    -0.7107779310344828    -0.6882195517241378
C    -3.534515275862069    0.7684500689655173    0.705222448275862
C    -3.394730275862069    -1.4473629310344829    -0.9568835517241381
H    -1.3101642758620689    -0.9932989310344829    -1.140039551724138
C    -4.671713275862069    0.02369006896551723    0.4503834482758621
H    -3.5719842758620692    1.6455220689655172    1.336883448275862
C    -4.603332275862068    -1.0852739310344828    -0.3828185517241379
H    -3.341309275862069    -2.3041529310344826    -1.615228551724138
H    -5.615068275862068    0.30802206896551726    0.8972854482758621
H    -5.494159275862069    -1.6648629310344827    -0.5867205517241378
H    1.933219724137931    -2.1131469310344824    1.391999448275862
O    4.004751724137932    -1.0934609310344827    0.3572304482758621
C    5.113187724137932    -0.45214493103448283    -0.22870755172413793
H    5.963530724137931    -1.1085179310344828    -0.06605955172413791
H    4.9706357241379315    -0.3100049310344828    -1.303546551724138
H    5.310409724137932    0.5144450689655172    0.24278844827586207
O    1.0733537241379312    2.4912180689655172    -0.8947645517241378
H    1.882667724137931    2.8245570689655173    -1.2809085517241379
H    -0.32650727586206885    -1.1222039310344827    1.3750634482758621
C    8.29772424306025    1.6709614950746254    -1.579504542447105
C    7.012460715862714    2.1004178689621287    -1.9302021555750761
C    6.398809752438661    3.1184691237710487    -1.1796952175801458
C    7.038564883610692    3.733082013622986    -0.10363529436829276
C    8.311175254837801    3.302764145988925    0.20893828907604892
C    8.937756990533137    2.279180594045897    -0.5207205302500678
H    8.791422111796384    0.8903417976575472    -2.146304671866553
H    6.560757913731431    4.524983694324728    0.4591128964071635
H    8.843439625788008    3.7685246632477076    1.027413360716264
H    9.94082645459651    1.9763420255453534    -0.24958321626117375
C    6.100808352198939    1.7286721386043202    -2.983210784787797
C    5.005514216225256    2.5193590429486794    -2.8341983344203743
H    4.112947261481715    2.5648685823328083    -3.4381977976382148
N    5.155473281046711    3.3432603185127054    -1.7296468115344046
H    4.577555306736106    4.135677123299152    -1.517690336324092
C    6.352622454010056    0.690432248497338    -4.027064417234525
H    7.057350062740023    1.0481735007287314    -4.7807016637668305
H    6.78531801224405    -0.2081198112185529    -3.5838536929859295
H    5.434466103922793    0.39915427807542586    -4.5361221705601364
