44
IE = -1.376 kcal/mol
C    2.8035907241379308    -0.4830889310344828    0.31171544827586206
C    1.7467487241379311    -1.1601059310344828    0.919205448275862
C    0.4922377241379311    -0.5957459310344828    0.9020494482758621
C    0.23824372413793113    0.6453840689655173    0.3159804482758621
C    1.3068487241379312    1.3102510689655171    -0.2873885517241379
C    2.5812027241379307    0.7448800689655172    -0.2971815517241379
H    3.385087724137931    1.2793680689655171    -0.7846865517241379
C    -1.1168162758620688    1.2651360689655171    0.4203244482758621
O    -1.2606222758620689    2.4213810689655175    0.741730448275862
C    -2.313361275862069    0.40184506896551725    0.1452914482758621
C    -2.251433275862069    -0.7107779310344828    -0.6882195517241378
C    -3.534515275862069    0.7684500689655173    0.705222448275862
C    -3.394730275862069    -1.4473629310344829    -0.9568835517241381
H    -1.3101642758620689    -0.9932989310344829    -1.140039551724138
C    -4.671713275862069    0.02369006896551723    0.4503834482758621
H    -3.5719842758620692    1.6455220689655172    1.336883448275862
C    -4.603332275862068    -1.0852739310344828    -0.3828185517241379
H    -3.341309275862069    -2.3041529310344826    -1.615228551724138
H    -5.615068275862068    0.30802206896551726    0.8972854482758621
H    -5.494159275862069    -1.6648629310344827    -0.5867205517241378
H    1.933219724137931    -2.1131469310344824    1.391999448275862
O    4.004751724137932    -1.0934609310344827    0.3572304482758621
C    5.113187724137932    -0.45214493103448283    -0.22870755172413793
H    5.963530724137931    -1.1085179310344828    -0.06605955172413791
H    4.9706357241379315    -0.3100049310344828    -1.303546551724138
H    5.310409724137932    0.5144450689655172    0.24278844827586207
O    1.0733537241379312    2.4912180689655172    -0.8947645517241378
H    1.882667724137931    2.8245570689655173    -1.2809085517241379
H    -0.32650727586206885    -1.1222039310344827    1.3750634482758621
C    7.636495546232833    -5.42272309815374    0.9044904832692945
C    6.526302342182741    -4.727537227701106    0.45103080455782707
C    6.661521815676508    -3.778720277140655    -0.5534388297855068
C    7.905712295807275    -3.502785622547974    -1.113026399697148
C    9.013371908921059    -4.207198956783127    -0.6467440745953226
C    8.882432349086931    -5.1608858272532965    0.3514677983126017
H    7.530934356157245    -6.168131912014057    1.6814727796953923
H    5.551293469149688    -4.921784303847038    0.8793734522180049
H    5.784848965197277    -3.2442061220146154    -0.9025005268519002
H    9.991348974869226    -4.0024737076243895    -1.0682271369319005
H    9.753176730864922    -5.699615460551792    0.7051937846541737
C    8.05790698145654    -2.4690030508918355    -2.1969582492189
H    8.069692264805202    -2.931124682662831    -3.186635093143242
H    7.2308125908299985    -1.759376728576273    -2.17928296970326
H    8.99063253517278    -1.914973279363924    -2.0820409899092054
