48
IE = -24.235 kcal/mol
C    2.8035907241379308    -0.4830889310344828    0.31171544827586206
C    1.7467487241379311    -1.1601059310344828    0.919205448275862
C    0.4922377241379311    -0.5957459310344828    0.9020494482758621
C    0.23824372413793113    0.6453840689655173    0.3159804482758621
C    1.3068487241379312    1.3102510689655171    -0.2873885517241379
C    2.5812027241379307    0.7448800689655172    -0.2971815517241379
H    3.385087724137931    1.2793680689655171    -0.7846865517241379
C    -1.1168162758620688    1.2651360689655171    0.4203244482758621
O    -1.2606222758620689    2.4213810689655175    0.741730448275862
C    -2.313361275862069    0.40184506896551725    0.1452914482758621
C    -2.251433275862069    -0.7107779310344828    -0.6882195517241378
C    -3.534515275862069    0.7684500689655173    0.705222448275862
C    -3.394730275862069    -1.4473629310344829    -0.9568835517241381
H    -1.3101642758620689    -0.9932989310344829    -1.140039551724138
C    -4.671713275862069    0.02369006896551723    0.4503834482758621
H    -3.5719842758620692    1.6455220689655172    1.336883448275862
C    -4.603332275862068    -1.0852739310344828    -0.3828185517241379
H    -3.341309275862069    -2.3041529310344826    -1.615228551724138
H    -5.615068275862068    0.30802206896551726    0.8972854482758621
H    -5.494159275862069    -1.6648629310344827    -0.5867205517241378
H    1.933219724137931    -2.1131469310344824    1.391999448275862
O    4.004751724137932    -1.0934609310344827    0.3572304482758621
C    5.113187724137932    -0.45214493103448283    -0.22870755172413793
H    5.963530724137931    -1.1085179310344828    -0.06605955172413791
H    4.9706357241379315    -0.3100049310344828    -1.303546551724138
H    5.310409724137932    0.5144450689655172    0.24278844827586207
O    1.0733537241379312    2.4912180689655172    -0.8947645517241378
H    1.882667724137931    2.8245570689655173    -1.2809085517241379
H    -0.32650727586206885    -1.1222039310344827    1.3750634482758621
N    -2.849341237353333    4.3767408190438335    1.9076792049021671
H    -2.3320093541122797    3.6922191533672786    1.3444314045464176
H    -2.583662420646972    4.466988286364912    2.8735970424385364
C    -3.854131366555372    5.099318272593259    1.4379171799748205
N    -4.480396677992338    5.970448806136808    2.245267271867369
H    -5.27392712073068    6.497774525052491    1.9295476765298583
H    -4.23175856683314    6.043894831464361    3.215908465244062
N    -4.246540116123266    4.970923167976264    0.1773126704087193
H    -4.984853049258606    5.570337980027996    -0.15459049993237872
C    -3.582094307392146    4.111205125148306    -0.8087577264428669
H    -2.6061581453145006    4.533836734783643    -1.0628694638037353
H    -3.41224072704303    3.132535048303402    -0.36281024649350613
C    -4.447273407983097    3.9517279192803803    -2.0457958848326103
H    -4.652470151328049    4.934239872699087    -2.4810191535528534
H    -5.408000948831325    3.516887584397826    -1.7572706337176263
C    -3.754817914213212    3.0580940104486865    -3.0678256012731673
H    -4.366816534732989    2.928905273487664    -3.9592145034655006
H    -2.7988567383754983    3.486598185918786    -3.375394467865084
H    -3.560547909965024    2.0679611809857676    -2.648580436187213
