45
IE = -2.135 kcal/mol
C    2.8035907241379308    -0.4830889310344828    0.31171544827586206
C    1.7467487241379311    -1.1601059310344828    0.919205448275862
C    0.4922377241379311    -0.5957459310344828    0.9020494482758621
C    0.23824372413793113    0.6453840689655173    0.3159804482758621
C    1.3068487241379312    1.3102510689655171    -0.2873885517241379
C    2.5812027241379307    0.7448800689655172    -0.2971815517241379
H    3.385087724137931    1.2793680689655171    -0.7846865517241379
C    -1.1168162758620688    1.2651360689655171    0.4203244482758621
O    -1.2606222758620689    2.4213810689655175    0.741730448275862
C    -2.313361275862069    0.40184506896551725    0.1452914482758621
C    -2.251433275862069    -0.7107779310344828    -0.6882195517241378
C    -3.534515275862069    0.7684500689655173    0.705222448275862
C    -3.394730275862069    -1.4473629310344829    -0.9568835517241381
H    -1.3101642758620689    -0.9932989310344829    -1.140039551724138
C    -4.671713275862069    0.02369006896551723    0.4503834482758621
H    -3.5719842758620692    1.6455220689655172    1.336883448275862
C    -4.603332275862068    -1.0852739310344828    -0.3828185517241379
H    -3.341309275862069    -2.3041529310344826    -1.615228551724138
H    -5.615068275862068    0.30802206896551726    0.8972854482758621
H    -5.494159275862069    -1.6648629310344827    -0.5867205517241378
H    1.933219724137931    -2.1131469310344824    1.391999448275862
O    4.004751724137932    -1.0934609310344827    0.3572304482758621
C    5.113187724137932    -0.45214493103448283    -0.22870755172413793
H    5.963530724137931    -1.1085179310344828    -0.06605955172413791
H    4.9706357241379315    -0.3100049310344828    -1.303546551724138
H    5.310409724137932    0.5144450689655172    0.24278844827586207
O    1.0733537241379312    2.4912180689655172    -0.8947645517241378
H    1.882667724137931    2.8245570689655173    -1.2809085517241379
H    -0.32650727586206885    -1.1222039310344827    1.3750634482758621
C    8.376084385682542    1.9616396192854995    1.3943045243359538
C    8.361966531081526    2.0160296128903443    -0.11056411858562784
C    8.362511481252008    3.2332641011396817    -0.7928855856970728
C    8.340341372072107    3.2886655846618673    -2.175477194085836
C    8.318416012783821    2.110242844311603    -2.9131273995211386
O    8.303270821083125    2.2164170601562834    -4.275761340365097
C    8.318618559250082    0.8893521010498464    -2.257412767523716
C    8.3434573057289    0.8538671303623809    -0.8686503082182606
H    9.234370660556129    2.4923099378464992    1.8106893708910758
H    8.42184827191525    0.9294787365997729    1.7417513053101656
H    7.476830936728931    2.4172810467820476    1.8134621225922911
H    8.384823442601785    4.15925193489858    -0.22785141098582684
H    8.343240803397943    4.234671389175497    -2.7008866816871713
H    8.292704418348917    1.337859687478872    -4.668027982881865
H    8.309841690146095    -0.03374657399045303    -2.82750518748094
H    8.35585368921557    -0.10679304849944811    -0.36754193774656707
