43
IE = -2.811 kcal/mol
C    2.8035907241379308    -0.4830889310344828    0.31171544827586206
C    1.7467487241379311    -1.1601059310344828    0.919205448275862
C    0.4922377241379311    -0.5957459310344828    0.9020494482758621
C    0.23824372413793113    0.6453840689655173    0.3159804482758621
C    1.3068487241379312    1.3102510689655171    -0.2873885517241379
C    2.5812027241379307    0.7448800689655172    -0.2971815517241379
H    3.385087724137931    1.2793680689655171    -0.7846865517241379
C    -1.1168162758620688    1.2651360689655171    0.4203244482758621
O    -1.2606222758620689    2.4213810689655175    0.741730448275862
C    -2.313361275862069    0.40184506896551725    0.1452914482758621
C    -2.251433275862069    -0.7107779310344828    -0.6882195517241378
C    -3.534515275862069    0.7684500689655173    0.705222448275862
C    -3.394730275862069    -1.4473629310344829    -0.9568835517241381
H    -1.3101642758620689    -0.9932989310344829    -1.140039551724138
C    -4.671713275862069    0.02369006896551723    0.4503834482758621
H    -3.5719842758620692    1.6455220689655172    1.336883448275862
C    -4.603332275862068    -1.0852739310344828    -0.3828185517241379
H    -3.341309275862069    -2.3041529310344826    -1.615228551724138
H    -5.615068275862068    0.30802206896551726    0.8972854482758621
H    -5.494159275862069    -1.6648629310344827    -0.5867205517241378
H    1.933219724137931    -2.1131469310344824    1.391999448275862
O    4.004751724137932    -1.0934609310344827    0.3572304482758621
C    5.113187724137932    -0.45214493103448283    -0.22870755172413793
H    5.963530724137931    -1.1085179310344828    -0.06605955172413791
H    4.9706357241379315    -0.3100049310344828    -1.303546551724138
H    5.310409724137932    0.5144450689655172    0.24278844827586207
O    1.0733537241379312    2.4912180689655172    -0.8947645517241378
H    1.882667724137931    2.8245570689655173    -1.2809085517241379
H    -0.32650727586206885    -1.1222039310344827    1.3750634482758621
C    3.2773883245816355    -5.251022702925949    0.3898358001915965
H    2.9457278452287916    -6.293516893409474    0.4192300580454286
C    3.285932820146647    -4.683195534115868    1.8045587334248236
C    2.398200637549186    -4.483710533732349    -0.5952486315485183
H    3.7089633893229315    -3.6761081198246255    1.820206015819415
H    2.2804682020173463    -4.633682438314247    2.2274165729803825
H    3.886656513665028    -5.309439266407288    2.466098739727051
H    2.722635970769058    -3.4385389634341346    -0.6356625619915621
H    2.5554452275479154    -4.894410121124959    -1.5974906123141415
C    0.9113996088050946    -4.552812328409636    -0.26176949878720535
H    0.6665867082421001    -3.9927089661571316    0.642369382066857
H    0.31117926091597536    -4.139350208607967    -1.0733289464875069
H    0.5967383082807571    -5.588092195117236    -0.10573459942358862
H    4.301567924541921    -5.272766627403902    0.010431423886062626
