46
IE = -3.858 kcal/mol
C    2.8035907241379308    -0.4830889310344828    0.31171544827586206
C    1.7467487241379311    -1.1601059310344828    0.919205448275862
C    0.4922377241379311    -0.5957459310344828    0.9020494482758621
C    0.23824372413793113    0.6453840689655173    0.3159804482758621
C    1.3068487241379312    1.3102510689655171    -0.2873885517241379
C    2.5812027241379307    0.7448800689655172    -0.2971815517241379
H    3.385087724137931    1.2793680689655171    -0.7846865517241379
C    -1.1168162758620688    1.2651360689655171    0.4203244482758621
O    -1.2606222758620689    2.4213810689655175    0.741730448275862
C    -2.313361275862069    0.40184506896551725    0.1452914482758621
C    -2.251433275862069    -0.7107779310344828    -0.6882195517241378
C    -3.534515275862069    0.7684500689655173    0.705222448275862
C    -3.394730275862069    -1.4473629310344829    -0.9568835517241381
H    -1.3101642758620689    -0.9932989310344829    -1.140039551724138
C    -4.671713275862069    0.02369006896551723    0.4503834482758621
H    -3.5719842758620692    1.6455220689655172    1.336883448275862
C    -4.603332275862068    -1.0852739310344828    -0.3828185517241379
H    -3.341309275862069    -2.3041529310344826    -1.615228551724138
H    -5.615068275862068    0.30802206896551726    0.8972854482758621
H    -5.494159275862069    -1.6648629310344827    -0.5867205517241378
H    1.933219724137931    -2.1131469310344824    1.391999448275862
O    4.004751724137932    -1.0934609310344827    0.3572304482758621
C    5.113187724137932    -0.45214493103448283    -0.22870755172413793
H    5.963530724137931    -1.1085179310344828    -0.06605955172413791
H    4.9706357241379315    -0.3100049310344828    -1.303546551724138
H    5.310409724137932    0.5144450689655172    0.24278844827586207
O    1.0733537241379312    2.4912180689655172    -0.8947645517241378
H    1.882667724137931    2.8245570689655173    -1.2809085517241379
H    -0.32650727586206885    -1.1222039310344827    1.3750634482758621
N    1.2381316806778326    -7.435004082378143    -0.12768164241718866
H    2.2083457483758324    -7.7527123388756936    -0.14619268863151746
H    0.6862262386576756    -8.124674962469111    0.38735305946081805
C    1.102349661889041    -6.0589040138573775    0.5008730888217385
H    1.6966353206288527    -5.3806559788284956    -0.1106533748247004
H    1.5563648816812055    -6.131222537740739    1.4878889808905005
C    -0.3550831372698473    -5.652105367145799    0.5675751858965205
H    -0.8011743774271218    -5.690650060086911    -0.43264016110862646
H    -0.9079408996407063    -6.357828761159694    1.198396251965183
C    -0.5093905525813989    -4.236370793647832    1.1249936226706805
H    -0.02865743885835768    -3.529781830155306    0.4421922494897155
H    0.020309826646370856    -4.162332285688254    2.0794666244252533
C    -1.975025709487516    -3.870478807475855    1.3148005920282515
H    -2.464354468655261    -4.5593885107878105    2.005025836734782
H    -2.0812873328722756    -2.8632487204792847    1.714834942353195
H    -2.5122664346298564    -3.8982696572791116    0.3667876044364093
H    0.8953741910876156    -7.42719011039123    -1.0898932460436068
