48
IE = -6.318 kcal/mol
C    2.8035907241379308    -0.4830889310344828    0.31171544827586206
C    1.7467487241379311    -1.1601059310344828    0.919205448275862
C    0.4922377241379311    -0.5957459310344828    0.9020494482758621
C    0.23824372413793113    0.6453840689655173    0.3159804482758621
C    1.3068487241379312    1.3102510689655171    -0.2873885517241379
C    2.5812027241379307    0.7448800689655172    -0.2971815517241379
H    3.385087724137931    1.2793680689655171    -0.7846865517241379
C    -1.1168162758620688    1.2651360689655171    0.4203244482758621
O    -1.2606222758620689    2.4213810689655175    0.741730448275862
C    -2.313361275862069    0.40184506896551725    0.1452914482758621
C    -2.251433275862069    -0.7107779310344828    -0.6882195517241378
C    -3.534515275862069    0.7684500689655173    0.705222448275862
C    -3.394730275862069    -1.4473629310344829    -0.9568835517241381
H    -1.3101642758620689    -0.9932989310344829    -1.140039551724138
C    -4.671713275862069    0.02369006896551723    0.4503834482758621
H    -3.5719842758620692    1.6455220689655172    1.336883448275862
C    -4.603332275862068    -1.0852739310344828    -0.3828185517241379
H    -3.341309275862069    -2.3041529310344826    -1.615228551724138
H    -5.615068275862068    0.30802206896551726    0.8972854482758621
H    -5.494159275862069    -1.6648629310344827    -0.5867205517241378
H    1.933219724137931    -2.1131469310344824    1.391999448275862
O    4.004751724137932    -1.0934609310344827    0.3572304482758621
C    5.113187724137932    -0.45214493103448283    -0.22870755172413793
H    5.963530724137931    -1.1085179310344828    -0.06605955172413791
H    4.9706357241379315    -0.3100049310344828    -1.303546551724138
H    5.310409724137932    0.5144450689655172    0.24278844827586207
O    1.0733537241379312    2.4912180689655172    -0.8947645517241378
H    1.882667724137931    2.8245570689655173    -1.2809085517241379
H    -0.32650727586206885    -1.1222039310344827    1.3750634482758621
N    6.1459958252698055    -1.3418926953641486    3.1440759639790823
H    7.108560654082961    -1.5446257098312859    2.9412684179187774
H    5.940901293251277    -0.48227939693813154    3.624106037959016
C    5.188046077280639    -2.2476174262512547    2.936251697189202
N    4.003155986489957    -2.089923955971392    3.535988476809569
H    3.1788679508512514    -2.491629384182327    3.122912353672016
H    3.8545088391296423    -1.3218235561622025    4.167169299334381
N    5.407761590373608    -3.307070788292543    2.1767799162660197
H    4.683592809185952    -4.009181055861839    2.154941512144549
C    6.533609170207867    -3.500368783703833    1.2552329917949125
H    7.032945646239503    -2.5407504162349257    1.1143308253820858
H    7.2542901494628484    -4.189343708783841    1.7000251310211034
C    6.0405291924712845    -4.0207281238981    -0.08873544678355724
H    5.267978588738747    -3.345125104575237    -0.4619433926952273
H    5.565706532410679    -4.994879893748296    0.06029716295556262
C    7.174493190051817    -4.140933424884089    -1.0999360678732504
H    6.799834535146327    -4.52348902954541    -2.0480955366677853
H    7.634629746652868    -3.1695143116851994    -1.295633994956819
H    7.951011228005678    -4.823352976777425    -0.7525947564665632
