48
IE = -2.118 kcal/mol
C    2.8035907241379308    -0.4830889310344828    0.31171544827586206
C    1.7467487241379311    -1.1601059310344828    0.919205448275862
C    0.4922377241379311    -0.5957459310344828    0.9020494482758621
C    0.23824372413793113    0.6453840689655173    0.3159804482758621
C    1.3068487241379312    1.3102510689655171    -0.2873885517241379
C    2.5812027241379307    0.7448800689655172    -0.2971815517241379
H    3.385087724137931    1.2793680689655171    -0.7846865517241379
C    -1.1168162758620688    1.2651360689655171    0.4203244482758621
O    -1.2606222758620689    2.4213810689655175    0.741730448275862
C    -2.313361275862069    0.40184506896551725    0.1452914482758621
C    -2.251433275862069    -0.7107779310344828    -0.6882195517241378
C    -3.534515275862069    0.7684500689655173    0.705222448275862
C    -3.394730275862069    -1.4473629310344829    -0.9568835517241381
H    -1.3101642758620689    -0.9932989310344829    -1.140039551724138
C    -4.671713275862069    0.02369006896551723    0.4503834482758621
H    -3.5719842758620692    1.6455220689655172    1.336883448275862
C    -4.603332275862068    -1.0852739310344828    -0.3828185517241379
H    -3.341309275862069    -2.3041529310344826    -1.615228551724138
H    -5.615068275862068    0.30802206896551726    0.8972854482758621
H    -5.494159275862069    -1.6648629310344827    -0.5867205517241378
H    1.933219724137931    -2.1131469310344824    1.391999448275862
O    4.004751724137932    -1.0934609310344827    0.3572304482758621
C    5.113187724137932    -0.45214493103448283    -0.22870755172413793
H    5.963530724137931    -1.1085179310344828    -0.06605955172413791
H    4.9706357241379315    -0.3100049310344828    -1.303546551724138
H    5.310409724137932    0.5144450689655172    0.24278844827586207
O    1.0733537241379312    2.4912180689655172    -0.8947645517241378
H    1.882667724137931    2.8245570689655173    -1.2809085517241379
H    -0.32650727586206885    -1.1222039310344827    1.3750634482758621
C    -5.599384212040708    5.760125453869263    0.12997358794624173
C    -6.075376347419791    4.475596685723841    -0.15411964574560655
C    -5.659362068731185    3.835021332838636    -1.3345703181169626
C    -4.778711762353148    4.434483609961083    -2.2333195934748233
C    -4.316737430098995    5.696811324421477    -1.9254898675401828
C    -4.7221188206724545    6.354540392310494    -0.7519856628690336
H    -5.911706057968409    6.275738920802676    1.0308449903358383
H    -4.4665495887514375    3.9262482669425207    -3.1364993598627313
H    -3.624753764789974    6.189725025383737    -2.597038428048275
H    -4.337424429013093    7.34375566788483    -0.5405837862639508
C    -6.967788506566194    3.5776796651594442    0.5323276719627031
C    -7.056549774662762    2.4651237056961155    -0.2448660154778094
H    -7.625751359363743    1.5617814409684239    -0.0887303458658102
N    -6.288277753329141    2.614172590861788    -1.3824761234282474
H    -6.074549886879068    1.8805131800152548    -2.032423902239508
C    -7.648756045675898    3.8523216408103638    1.8316493653047123
H    -6.928530197927868    4.188821923966334    2.5807853018192324
H    -8.400590970521144    4.638158710798623    1.7266157365585681
H    -8.142609738825788    2.9597769499363618    2.2164888603632726
