43
IE = -2.676 kcal/mol
C    2.8035907241379308    -0.4830889310344828    0.31171544827586206
C    1.7467487241379311    -1.1601059310344828    0.919205448275862
C    0.4922377241379311    -0.5957459310344828    0.9020494482758621
C    0.23824372413793113    0.6453840689655173    0.3159804482758621
C    1.3068487241379312    1.3102510689655171    -0.2873885517241379
C    2.5812027241379307    0.7448800689655172    -0.2971815517241379
H    3.385087724137931    1.2793680689655171    -0.7846865517241379
C    -1.1168162758620688    1.2651360689655171    0.4203244482758621
O    -1.2606222758620689    2.4213810689655175    0.741730448275862
C    -2.313361275862069    0.40184506896551725    0.1452914482758621
C    -2.251433275862069    -0.7107779310344828    -0.6882195517241378
C    -3.534515275862069    0.7684500689655173    0.705222448275862
C    -3.394730275862069    -1.4473629310344829    -0.9568835517241381
H    -1.3101642758620689    -0.9932989310344829    -1.140039551724138
C    -4.671713275862069    0.02369006896551723    0.4503834482758621
H    -3.5719842758620692    1.6455220689655172    1.336883448275862
C    -4.603332275862068    -1.0852739310344828    -0.3828185517241379
H    -3.341309275862069    -2.3041529310344826    -1.615228551724138
H    -5.615068275862068    0.30802206896551726    0.8972854482758621
H    -5.494159275862069    -1.6648629310344827    -0.5867205517241378
H    1.933219724137931    -2.1131469310344824    1.391999448275862
O    4.004751724137932    -1.0934609310344827    0.3572304482758621
C    5.113187724137932    -0.45214493103448283    -0.22870755172413793
H    5.963530724137931    -1.1085179310344828    -0.06605955172413791
H    4.9706357241379315    -0.3100049310344828    -1.303546551724138
H    5.310409724137932    0.5144450689655172    0.24278844827586207
O    1.0733537241379312    2.4912180689655172    -0.8947645517241378
H    1.882667724137931    2.8245570689655173    -1.2809085517241379
H    -0.32650727586206885    -1.1222039310344827    1.3750634482758621
C    -5.110433275798338    1.6167367067041691    -3.2537278005963337
H    -5.027673072622835    2.0564115232896127    -4.25287479625871
C    -6.562741254228667    1.2399267489892587    -2.976655458768659
C    -4.5452483256737555    2.594903769886799    -2.2241784692728768
H    -6.632835365093616    0.6199852214466257    -2.079917945931794
H    -7.185770604348766    2.1208062771020146    -2.8112209678014315
H    -6.9984094366746925    0.6815421379368254    -3.805873937235186
H    -4.849882644171552    2.273284579072427    -1.2257639819145285
H    -3.452803747457984    2.5553808635776973    -2.22850183004201
C    -4.993485597171428    4.033988503635837    -2.4522071376343266
H    -6.082270650536905    4.119969534127526    -2.48664270700696
H    -4.635320378436052    4.687456928541543    -1.6550695011621124
H    -4.600493653979078    4.4152746190439025    -3.3976133315758448
H    -4.503168130098332    0.7086274623099127    -3.2630814869528066
