48
IE = -5.374 kcal/mol
C    2.8035907241379308    -0.4830889310344828    0.31171544827586206
C    1.7467487241379311    -1.1601059310344828    0.919205448275862
C    0.4922377241379311    -0.5957459310344828    0.9020494482758621
C    0.23824372413793113    0.6453840689655173    0.3159804482758621
C    1.3068487241379312    1.3102510689655171    -0.2873885517241379
C    2.5812027241379307    0.7448800689655172    -0.2971815517241379
H    3.385087724137931    1.2793680689655171    -0.7846865517241379
C    -1.1168162758620688    1.2651360689655171    0.4203244482758621
O    -1.2606222758620689    2.4213810689655175    0.741730448275862
C    -2.313361275862069    0.40184506896551725    0.1452914482758621
C    -2.251433275862069    -0.7107779310344828    -0.6882195517241378
C    -3.534515275862069    0.7684500689655173    0.705222448275862
C    -3.394730275862069    -1.4473629310344829    -0.9568835517241381
H    -1.3101642758620689    -0.9932989310344829    -1.140039551724138
C    -4.671713275862069    0.02369006896551723    0.4503834482758621
H    -3.5719842758620692    1.6455220689655172    1.336883448275862
C    -4.603332275862068    -1.0852739310344828    -0.3828185517241379
H    -3.341309275862069    -2.3041529310344826    -1.615228551724138
H    -5.615068275862068    0.30802206896551726    0.8972854482758621
H    -5.494159275862069    -1.6648629310344827    -0.5867205517241378
H    1.933219724137931    -2.1131469310344824    1.391999448275862
O    4.004751724137932    -1.0934609310344827    0.3572304482758621
C    5.113187724137932    -0.45214493103448283    -0.22870755172413793
H    5.963530724137931    -1.1085179310344828    -0.06605955172413791
H    4.9706357241379315    -0.3100049310344828    -1.303546551724138
H    5.310409724137932    0.5144450689655172    0.24278844827586207
O    1.0733537241379312    2.4912180689655172    -0.8947645517241378
H    1.882667724137931    2.8245570689655173    -1.2809085517241379
H    -0.32650727586206885    -1.1222039310344827    1.3750634482758621
C    4.485991458090217    4.171647226688688    -0.5729837202823688
C    4.811866508253778    4.098368906683766    0.7862132619313172
C    6.171559846136423    4.103342980098311    1.1555097106786387
C    7.200555972955607    4.153497090445016    0.21708484066678724
C    6.847639225938637    4.20524350838244    -1.115352122396308
C    5.498331468226631    4.220747555367773    -1.5093872257203924
H    3.448230171314294    4.22664910487956    -0.8814135246757603
H    8.239194561366883    4.158549386701356    0.5248114886533135
H    7.624068629682705    4.250786138331743    -1.8680792785932223
H    5.250428045043016    4.298030233388906    -2.560123113777041
C    4.034304479701036    4.039248843377393    1.998030793648741
C    4.934226033864129    4.0208109240301155    3.017558597763654
H    4.765500191294034    3.9849965404739356    4.0815599512571445
N    6.2232586848626115    4.053023128530108    2.524380950847336
H    7.0550641025193475    4.113271344199736    3.0801775077494367
C    2.5449834036192316    3.993740660853169    2.0992244668614957
H    2.0850701562330287    4.844129527348884    1.5919532346854357
H    2.1395835725509946    3.0889864007421783    1.6410876512876345
H    2.2239081194943053    4.009518959539943    3.141104551673662
