46
IE = 1.918 kcal/mol
C    2.8035907241379308    -0.4830889310344828    0.31171544827586206
C    1.7467487241379311    -1.1601059310344828    0.919205448275862
C    0.4922377241379311    -0.5957459310344828    0.9020494482758621
C    0.23824372413793113    0.6453840689655173    0.3159804482758621
C    1.3068487241379312    1.3102510689655171    -0.2873885517241379
C    2.5812027241379307    0.7448800689655172    -0.2971815517241379
H    3.385087724137931    1.2793680689655171    -0.7846865517241379
C    -1.1168162758620688    1.2651360689655171    0.4203244482758621
O    -1.2606222758620689    2.4213810689655175    0.741730448275862
C    -2.313361275862069    0.40184506896551725    0.1452914482758621
C    -2.251433275862069    -0.7107779310344828    -0.6882195517241378
C    -3.534515275862069    0.7684500689655173    0.705222448275862
C    -3.394730275862069    -1.4473629310344829    -0.9568835517241381
H    -1.3101642758620689    -0.9932989310344829    -1.140039551724138
C    -4.671713275862069    0.02369006896551723    0.4503834482758621
H    -3.5719842758620692    1.6455220689655172    1.336883448275862
C    -4.603332275862068    -1.0852739310344828    -0.3828185517241379
H    -3.341309275862069    -2.3041529310344826    -1.615228551724138
H    -5.615068275862068    0.30802206896551726    0.8972854482758621
H    -5.494159275862069    -1.6648629310344827    -0.5867205517241378
H    1.933219724137931    -2.1131469310344824    1.391999448275862
O    4.004751724137932    -1.0934609310344827    0.3572304482758621
C    5.113187724137932    -0.45214493103448283    -0.22870755172413793
H    5.963530724137931    -1.1085179310344828    -0.06605955172413791
H    4.9706357241379315    -0.3100049310344828    -1.303546551724138
H    5.310409724137932    0.5144450689655172    0.24278844827586207
O    1.0733537241379312    2.4912180689655172    -0.8947645517241378
H    1.882667724137931    2.8245570689655173    -1.2809085517241379
H    -0.32650727586206885    -1.1222039310344827    1.3750634482758621
N    6.692756466507355    3.546125908419311    0.2857783720364245
H    6.811499027188433    4.007311809525764    1.1896928594376655
H    6.678006758028183    4.270394672232344    -0.4342261304000764
C    7.798294184517767    2.5425419376245197    0.0189799996303676
H    7.742632464726244    1.816003494081449    0.8283465830366765
H    8.73357311372777    3.09430413140767    0.10324068049082223
C    7.625717533597187    1.892771970719518    -1.339847475071153
H    6.610396894278864    1.4940962361104269    -1.4370763982794903
H    7.756728743316729    2.631571321551232    -2.136947892238637
C    8.62403807699943    0.7500891014677907    -1.5326244060330263
H    8.504856898690406    0.02788391927216707    -0.7194952416587278
H    9.642785410599357    1.1377316927315786    -1.456365439609186
C    8.426557713649492    0.057942580705254584    -2.875253023937936
H    8.580187899378226    0.7492307647304073    -3.704556459531468
H    9.126146332320872    -0.7663464008596295    -3.001002715013886
H    7.417165815566412    -0.34773512809932444    -2.961069673690819
H    5.7773469535045985    3.0897664452936873    0.2854669116871499
