43
IE = -2.791 kcal/mol
C    2.8035907241379308    -0.4830889310344828    0.31171544827586206
C    1.7467487241379311    -1.1601059310344828    0.919205448275862
C    0.4922377241379311    -0.5957459310344828    0.9020494482758621
C    0.23824372413793113    0.6453840689655173    0.3159804482758621
C    1.3068487241379312    1.3102510689655171    -0.2873885517241379
C    2.5812027241379307    0.7448800689655172    -0.2971815517241379
H    3.385087724137931    1.2793680689655171    -0.7846865517241379
C    -1.1168162758620688    1.2651360689655171    0.4203244482758621
O    -1.2606222758620689    2.4213810689655175    0.741730448275862
C    -2.313361275862069    0.40184506896551725    0.1452914482758621
C    -2.251433275862069    -0.7107779310344828    -0.6882195517241378
C    -3.534515275862069    0.7684500689655173    0.705222448275862
C    -3.394730275862069    -1.4473629310344829    -0.9568835517241381
H    -1.3101642758620689    -0.9932989310344829    -1.140039551724138
C    -4.671713275862069    0.02369006896551723    0.4503834482758621
H    -3.5719842758620692    1.6455220689655172    1.336883448275862
C    -4.603332275862068    -1.0852739310344828    -0.3828185517241379
H    -3.341309275862069    -2.3041529310344826    -1.615228551724138
H    -5.615068275862068    0.30802206896551726    0.8972854482758621
H    -5.494159275862069    -1.6648629310344827    -0.5867205517241378
H    1.933219724137931    -2.1131469310344824    1.391999448275862
O    4.004751724137932    -1.0934609310344827    0.3572304482758621
C    5.113187724137932    -0.45214493103448283    -0.22870755172413793
H    5.963530724137931    -1.1085179310344828    -0.06605955172413791
H    4.9706357241379315    -0.3100049310344828    -1.303546551724138
H    5.310409724137932    0.5144450689655172    0.24278844827586207
O    1.0733537241379312    2.4912180689655172    -0.8947645517241378
H    1.882667724137931    2.8245570689655173    -1.2809085517241379
H    -0.32650727586206885    -1.1222039310344827    1.3750634482758621
C    3.726934630407457    -4.047908538199601    -3.153918884429938
H    2.8025216983910215    -4.365488569383929    -2.6605543019158824
C    4.796837147604915    -3.783788447773827    -2.1002857423891976
C    3.4285974315040346    -2.8394299520761335    -4.038944649413299
H    5.742518290418091    -3.4962967560573053    -2.567401875376323
H    4.4969185243429415    -2.991813107168333    -1.4127511247081654
H    4.984962635821996    -4.674464718574784    -1.500572823154966
H    4.367258843487079    -2.479546535117041    -4.472628612529052
H    2.8072119339931123    -3.1575919813594147    -4.879829988985592
C    2.729058479697    -1.7023206313498886    -3.3029503462011682
H    3.329223294369808    -1.3304008369854232    -2.471216855286889
H    2.5290299440032444    -0.8581889956192517    -3.965252183836185
H    1.7756444651491086    -2.0367725480963483    -2.8862043750567867
H    4.044603276889318    -4.880907086256553    -3.7862180223413224
