45
IE = -7.360 kcal/mol
C    2.8035907241379308    -0.4830889310344828    0.31171544827586206
C    1.7467487241379311    -1.1601059310344828    0.919205448275862
C    0.4922377241379311    -0.5957459310344828    0.9020494482758621
C    0.23824372413793113    0.6453840689655173    0.3159804482758621
C    1.3068487241379312    1.3102510689655171    -0.2873885517241379
C    2.5812027241379307    0.7448800689655172    -0.2971815517241379
H    3.385087724137931    1.2793680689655171    -0.7846865517241379
C    -1.1168162758620688    1.2651360689655171    0.4203244482758621
O    -1.2606222758620689    2.4213810689655175    0.741730448275862
C    -2.313361275862069    0.40184506896551725    0.1452914482758621
C    -2.251433275862069    -0.7107779310344828    -0.6882195517241378
C    -3.534515275862069    0.7684500689655173    0.705222448275862
C    -3.394730275862069    -1.4473629310344829    -0.9568835517241381
H    -1.3101642758620689    -0.9932989310344829    -1.140039551724138
C    -4.671713275862069    0.02369006896551723    0.4503834482758621
H    -3.5719842758620692    1.6455220689655172    1.336883448275862
C    -4.603332275862068    -1.0852739310344828    -0.3828185517241379
H    -3.341309275862069    -2.3041529310344826    -1.615228551724138
H    -5.615068275862068    0.30802206896551726    0.8972854482758621
H    -5.494159275862069    -1.6648629310344827    -0.5867205517241378
H    1.933219724137931    -2.1131469310344824    1.391999448275862
O    4.004751724137932    -1.0934609310344827    0.3572304482758621
C    5.113187724137932    -0.45214493103448283    -0.22870755172413793
H    5.963530724137931    -1.1085179310344828    -0.06605955172413791
H    4.9706357241379315    -0.3100049310344828    -1.303546551724138
H    5.310409724137932    0.5144450689655172    0.24278844827586207
O    1.0733537241379312    2.4912180689655172    -0.8947645517241378
H    1.882667724137931    2.8245570689655173    -1.2809085517241379
H    -0.32650727586206885    -1.1222039310344827    1.3750634482758621
C    4.9602169125259    3.3257057201847786    1.4015284171679314
C    4.848928640594017    3.5099357152406094    -0.0868721789574312
C    3.8179395329550063    4.263040611330053    -0.642218741113743
C    3.671482329702307    4.401967693165128    -2.0153951565367323
C    4.573137366161315    3.776609105142023    -2.866849287780212
O    4.406771124167376    3.95527435045572    -4.208285118805964
C    5.609097847409733    3.0178893850243016    -2.3359628814665183
C    5.744689544928832    2.900748169805027    -0.960370013588977
H    4.326890098828838    4.034687018036303    1.9320049384585765
H    5.985281169168983    3.46452601431169    1.7458474615987638
H    4.639431192298373    2.3223113950251264    1.6939358046595743
H    3.1048829443881574    4.751784578950097    0.011461623667496226
H    2.878333906588335    5.005536259838028    -2.4376826573343364
H    5.132683619846164    3.5352702526484054    -4.680037445154894
H    6.315473118505766    2.5268404776749827    -2.997410844553615
H    6.569801313792072    2.318467690173076    -0.5640785750413434
