48
IE = -29.111 kcal/mol
C    2.8035907241379308    -0.4830889310344828    0.31171544827586206
C    1.7467487241379311    -1.1601059310344828    0.919205448275862
C    0.4922377241379311    -0.5957459310344828    0.9020494482758621
C    0.23824372413793113    0.6453840689655173    0.3159804482758621
C    1.3068487241379312    1.3102510689655171    -0.2873885517241379
C    2.5812027241379307    0.7448800689655172    -0.2971815517241379
H    3.385087724137931    1.2793680689655171    -0.7846865517241379
C    -1.1168162758620688    1.2651360689655171    0.4203244482758621
O    -1.2606222758620689    2.4213810689655175    0.741730448275862
C    -2.313361275862069    0.40184506896551725    0.1452914482758621
C    -2.251433275862069    -0.7107779310344828    -0.6882195517241378
C    -3.534515275862069    0.7684500689655173    0.705222448275862
C    -3.394730275862069    -1.4473629310344829    -0.9568835517241381
H    -1.3101642758620689    -0.9932989310344829    -1.140039551724138
C    -4.671713275862069    0.02369006896551723    0.4503834482758621
H    -3.5719842758620692    1.6455220689655172    1.336883448275862
C    -4.603332275862068    -1.0852739310344828    -0.3828185517241379
H    -3.341309275862069    -2.3041529310344826    -1.615228551724138
H    -5.615068275862068    0.30802206896551726    0.8972854482758621
H    -5.494159275862069    -1.6648629310344827    -0.5867205517241378
H    1.933219724137931    -2.1131469310344824    1.391999448275862
O    4.004751724137932    -1.0934609310344827    0.3572304482758621
C    5.113187724137932    -0.45214493103448283    -0.22870755172413793
H    5.963530724137931    -1.1085179310344828    -0.06605955172413791
H    4.9706357241379315    -0.3100049310344828    -1.303546551724138
H    5.310409724137932    0.5144450689655172    0.24278844827586207
O    1.0733537241379312    2.4912180689655172    -0.8947645517241378
H    1.882667724137931    2.8245570689655173    -1.2809085517241379
H    -0.32650727586206885    -1.1222039310344827    1.3750634482758621
N    -3.207826463834045    5.512238044199815    -0.5577004944019077
H    -3.869405963582918    5.339822135947699    -1.2928703663193393
H    -3.5158100838772195    6.046960654375811    0.23427945931588776
C    -2.0201201717533177    4.902948249633008    -0.5453870506707316
N    -1.1207710820072398    5.21402335171038    0.3962356549490849
H    -0.5162635949398005    4.459446382014214    0.6979552028544044
H    -1.362404405398243    5.903933772117332    1.087683276619551
N    -1.6994960183568564    4.03176274215154    -1.4872542658199257
H    -0.8043379875559095    3.5694568014102295    -1.3655547832043726
C    -2.68754330744655    3.312975191979393    -2.2924508324421136
H    -3.3387959405579912    2.7296806690154467    -1.6329343816069848
H    -3.3030385981384356    4.028009895281353    -2.8447133076410918
C    -1.9933785271891231    2.3939971168846537    -3.28220760303692
H    -1.2891729798008336    1.7537502557813867    -2.7411727278974642
H    -1.4093430974043006    2.997532012863    -3.981036490175511
C    -3.0126950574166282    1.5379460603063382    -4.023399646220054
H    -2.543885173633196    0.9723812715967131    -4.827560228674102
H    -3.494345128691037    0.8292239759241649    -3.346978669355961
H    -3.7952042808457147    2.1572629885659693    -4.466517920167068
