46
IE = 1.821 kcal/mol
C    2.8035907241379308    -0.4830889310344828    0.31171544827586206
C    1.7467487241379311    -1.1601059310344828    0.919205448275862
C    0.4922377241379311    -0.5957459310344828    0.9020494482758621
C    0.23824372413793113    0.6453840689655173    0.3159804482758621
C    1.3068487241379312    1.3102510689655171    -0.2873885517241379
C    2.5812027241379307    0.7448800689655172    -0.2971815517241379
H    3.385087724137931    1.2793680689655171    -0.7846865517241379
C    -1.1168162758620688    1.2651360689655171    0.4203244482758621
O    -1.2606222758620689    2.4213810689655175    0.741730448275862
C    -2.313361275862069    0.40184506896551725    0.1452914482758621
C    -2.251433275862069    -0.7107779310344828    -0.6882195517241378
C    -3.534515275862069    0.7684500689655173    0.705222448275862
C    -3.394730275862069    -1.4473629310344829    -0.9568835517241381
H    -1.3101642758620689    -0.9932989310344829    -1.140039551724138
C    -4.671713275862069    0.02369006896551723    0.4503834482758621
H    -3.5719842758620692    1.6455220689655172    1.336883448275862
C    -4.603332275862068    -1.0852739310344828    -0.3828185517241379
H    -3.341309275862069    -2.3041529310344826    -1.615228551724138
H    -5.615068275862068    0.30802206896551726    0.8972854482758621
H    -5.494159275862069    -1.6648629310344827    -0.5867205517241378
H    1.933219724137931    -2.1131469310344824    1.391999448275862
O    4.004751724137932    -1.0934609310344827    0.3572304482758621
C    5.113187724137932    -0.45214493103448283    -0.22870755172413793
H    5.963530724137931    -1.1085179310344828    -0.06605955172413791
H    4.9706357241379315    -0.3100049310344828    -1.303546551724138
H    5.310409724137932    0.5144450689655172    0.24278844827586207
O    1.0733537241379312    2.4912180689655172    -0.8947645517241378
H    1.882667724137931    2.8245570689655173    -1.2809085517241379
H    -0.32650727586206885    -1.1222039310344827    1.3750634482758621
N    9.636547424198158    1.2023183259243977    -1.379116431174731
H    10.451666849261906    0.5944567483871616    -1.2831557576049344
H    8.956622503314078    0.7262640844416964    -1.9753038849075817
C    9.006738087063008    1.5422453359368948    -0.041692419644007925
H    9.772324765352824    2.0484147588872808    0.5427283749699768
H    8.768541354988859    0.5936121295719601    0.4365680033583151
C    7.780889801624654    2.4018137663116756    -0.2627293306206328
H    8.065788227298672    3.328245394245211    -0.7735325518858688
H    7.0792839370707945    1.8721675130840028    -0.9179340905540716
C    7.072204177473856    2.7479255504708773    1.0463185341072696
H    7.7585789568621255    3.282801078584244    1.706249658661025
H    6.794357473550412    1.8289187119382775    1.5696546976503176
C    5.8322001589935475    3.593603182390025    0.7860739356809894
H    5.139759061940699    3.0696484609936463    0.1242146822231535
H    5.303697434064792    3.812890577723808    1.710644839386511
H    6.0934386553734425    4.5409228983937915    0.31301613750105306
H    9.930050661598107    2.0524419834120957    -1.8654941233642963
