43
IE = -2.580 kcal/mol
C    2.8035907241379308    -0.4830889310344828    0.31171544827586206
C    1.7467487241379311    -1.1601059310344828    0.919205448275862
C    0.4922377241379311    -0.5957459310344828    0.9020494482758621
C    0.23824372413793113    0.6453840689655173    0.3159804482758621
C    1.3068487241379312    1.3102510689655171    -0.2873885517241379
C    2.5812027241379307    0.7448800689655172    -0.2971815517241379
H    3.385087724137931    1.2793680689655171    -0.7846865517241379
C    -1.1168162758620688    1.2651360689655171    0.4203244482758621
O    -1.2606222758620689    2.4213810689655175    0.741730448275862
C    -2.313361275862069    0.40184506896551725    0.1452914482758621
C    -2.251433275862069    -0.7107779310344828    -0.6882195517241378
C    -3.534515275862069    0.7684500689655173    0.705222448275862
C    -3.394730275862069    -1.4473629310344829    -0.9568835517241381
H    -1.3101642758620689    -0.9932989310344829    -1.140039551724138
C    -4.671713275862069    0.02369006896551723    0.4503834482758621
H    -3.5719842758620692    1.6455220689655172    1.336883448275862
C    -4.603332275862068    -1.0852739310344828    -0.3828185517241379
H    -3.341309275862069    -2.3041529310344826    -1.615228551724138
H    -5.615068275862068    0.30802206896551726    0.8972854482758621
H    -5.494159275862069    -1.6648629310344827    -0.5867205517241378
H    1.933219724137931    -2.1131469310344824    1.391999448275862
O    4.004751724137932    -1.0934609310344827    0.3572304482758621
C    5.113187724137932    -0.45214493103448283    -0.22870755172413793
H    5.963530724137931    -1.1085179310344828    -0.06605955172413791
H    4.9706357241379315    -0.3100049310344828    -1.303546551724138
H    5.310409724137932    0.5144450689655172    0.24278844827586207
O    1.0733537241379312    2.4912180689655172    -0.8947645517241378
H    1.882667724137931    2.8245570689655173    -1.2809085517241379
H    -0.32650727586206885    -1.1222039310344827    1.3750634482758621
C    4.550295655076346    4.711209242112386    -0.6595090910488808
H    5.176990091071746    5.605953879964591    -0.5935182305469341
C    4.214329160075898    4.2131247915564325    0.7433914387051446
C    5.255373998162936    3.673326707869724    -1.5326167236589436
H    3.602759187640045    3.308343608038933    0.7070993742033279
H    5.108618364201857    3.974768739980018    1.3201221886031147
H    3.655655008677202    4.962695632272703    1.303983384800138
H    4.687406243119501    2.737733596278098    -1.5032427347485293
H    5.238999376553365    4.000519577788014    -2.5746541963053984
C    6.69603645021376    3.39772307638422    -1.1184783830114797
H    6.765605245245945    3.100589149749039    -0.07078006593494153
H    7.140196296725963    2.6038188296785325    -1.7220996768417531
H    7.3106044186787305    4.291341234170884    -1.2469010028220966
H    3.629173889968204    5.030247025241151    -1.1554649606292808
