46
IE = -3.261 kcal/mol
C    2.8035907241379308    -0.4830889310344828    0.31171544827586206
C    1.7467487241379311    -1.1601059310344828    0.919205448275862
C    0.4922377241379311    -0.5957459310344828    0.9020494482758621
C    0.23824372413793113    0.6453840689655173    0.3159804482758621
C    1.3068487241379312    1.3102510689655171    -0.2873885517241379
C    2.5812027241379307    0.7448800689655172    -0.2971815517241379
H    3.385087724137931    1.2793680689655171    -0.7846865517241379
C    -1.1168162758620688    1.2651360689655171    0.4203244482758621
O    -1.2606222758620689    2.4213810689655175    0.741730448275862
C    -2.313361275862069    0.40184506896551725    0.1452914482758621
C    -2.251433275862069    -0.7107779310344828    -0.6882195517241378
C    -3.534515275862069    0.7684500689655173    0.705222448275862
C    -3.394730275862069    -1.4473629310344829    -0.9568835517241381
H    -1.3101642758620689    -0.9932989310344829    -1.140039551724138
C    -4.671713275862069    0.02369006896551723    0.4503834482758621
H    -3.5719842758620692    1.6455220689655172    1.336883448275862
C    -4.603332275862068    -1.0852739310344828    -0.3828185517241379
H    -3.341309275862069    -2.3041529310344826    -1.615228551724138
H    -5.615068275862068    0.30802206896551726    0.8972854482758621
H    -5.494159275862069    -1.6648629310344827    -0.5867205517241378
H    1.933219724137931    -2.1131469310344824    1.391999448275862
O    4.004751724137932    -1.0934609310344827    0.3572304482758621
C    5.113187724137932    -0.45214493103448283    -0.22870755172413793
H    5.963530724137931    -1.1085179310344828    -0.06605955172413791
H    4.9706357241379315    -0.3100049310344828    -1.303546551724138
H    5.310409724137932    0.5144450689655172    0.24278844827586207
O    1.0733537241379312    2.4912180689655172    -0.8947645517241378
H    1.882667724137931    2.8245570689655173    -1.2809085517241379
H    -0.32650727586206885    -1.1222039310344827    1.3750634482758621
N    -8.979325646390484    -1.9307241895271399    -1.3307368579126944
H    -9.271192159511754    -2.8319711098002305    -1.710943129794311
H    -9.728149359911791    -1.254521643846895    -1.4982653976831588
C    -8.662824347750522    -2.003088663121471    0.15202331427910998
H    -7.769549974309208    -2.618970292352403    0.2513454535516076
H    -9.499570285404374    -2.514984749343966    0.6251138632431341
C    -8.465021266190606    -0.599969878125463    0.6851073499188616
H    -7.737658561667366    -0.07349013341942214    0.05686889911219249
H    -9.408981073032459    -0.04860475843367216    0.6138925637972021
C    -7.96981969240673    -0.5914453246150142    2.1298725430467065
H    -6.976356597739238    -1.0475799866330893    2.165606471032896
H    -8.619808618313977    -1.2139650344950654    2.7497333118136775
C    -7.932287296386901    0.8273560457627614    2.6848324599376427
H    -8.938785055064159    1.2427969354148434    2.7517745947812235
H    -7.493761243022337    0.8499080440000624    3.6803181847980126
H    -7.3424314746613435    1.4879575427937457    2.0464598845623065
H    -8.16154131742405    -1.614828379114894    -1.8569204471776817
