48
IE = -1.482 kcal/mol
C    2.8035907241379308    -0.4830889310344828    0.31171544827586206
C    1.7467487241379311    -1.1601059310344828    0.919205448275862
C    0.4922377241379311    -0.5957459310344828    0.9020494482758621
C    0.23824372413793113    0.6453840689655173    0.3159804482758621
C    1.3068487241379312    1.3102510689655171    -0.2873885517241379
C    2.5812027241379307    0.7448800689655172    -0.2971815517241379
H    3.385087724137931    1.2793680689655171    -0.7846865517241379
C    -1.1168162758620688    1.2651360689655171    0.4203244482758621
O    -1.2606222758620689    2.4213810689655175    0.741730448275862
C    -2.313361275862069    0.40184506896551725    0.1452914482758621
C    -2.251433275862069    -0.7107779310344828    -0.6882195517241378
C    -3.534515275862069    0.7684500689655173    0.705222448275862
C    -3.394730275862069    -1.4473629310344829    -0.9568835517241381
H    -1.3101642758620689    -0.9932989310344829    -1.140039551724138
C    -4.671713275862069    0.02369006896551723    0.4503834482758621
H    -3.5719842758620692    1.6455220689655172    1.336883448275862
C    -4.603332275862068    -1.0852739310344828    -0.3828185517241379
H    -3.341309275862069    -2.3041529310344826    -1.615228551724138
H    -5.615068275862068    0.30802206896551726    0.8972854482758621
H    -5.494159275862069    -1.6648629310344827    -0.5867205517241378
H    1.933219724137931    -2.1131469310344824    1.391999448275862
O    4.004751724137932    -1.0934609310344827    0.3572304482758621
C    5.113187724137932    -0.45214493103448283    -0.22870755172413793
H    5.963530724137931    -1.1085179310344828    -0.06605955172413791
H    4.9706357241379315    -0.3100049310344828    -1.303546551724138
H    5.310409724137932    0.5144450689655172    0.24278844827586207
O    1.0733537241379312    2.4912180689655172    -0.8947645517241378
H    1.882667724137931    2.8245570689655173    -1.2809085517241379
H    -0.32650727586206885    -1.1222039310344827    1.3750634482758621
C    8.910319576982277    2.8145501557694126    -1.916498078755428
C    9.355747943991762    1.9269626123150958    -0.9310920716320217
C    9.964925184734772    0.7195946995523217    -1.321179558807079
C    10.140673019220811    0.3746405462345678    -2.660199483137318
C    9.69224271061659    1.2682672437206701    -3.609415793064832
C    9.081702596287084    2.478944277070819    -3.2425163983803804
H    8.440191614461384    3.7503740967167634    -1.6400610991969593
H    10.611234060386625    -0.5578048930142178    -2.9451819105451036
H    9.813115345012505    1.0326088490180807    -4.658313665955989
H    8.743458885147978    3.1551188869633706    -4.016312449922761
C    9.338400404230935    1.956093772646798    0.5084740241093281
C    9.921140048102062    0.7976340648531944    0.9169980882960423
H    10.100854332670986    0.43904016123773537    1.9175094283861551
N    10.302675002783236    0.0433366033988854    -0.17454525599481116
H    10.754635811721272    -0.8508879775748691    -0.13429143948217376
C    8.787800592091864    3.048806660311106    1.362823467454153
H    9.29664333989345    3.9957458438103197    1.1718626765109175
H    7.724647277819946    3.205821585817947    1.168344440668105
H    8.903429349939717    2.813433712481959    2.4201945204912456
