43
IE = -1.183 kcal/mol
C    2.8035907241379308    -0.4830889310344828    0.31171544827586206
C    1.7467487241379311    -1.1601059310344828    0.919205448275862
C    0.4922377241379311    -0.5957459310344828    0.9020494482758621
C    0.23824372413793113    0.6453840689655173    0.3159804482758621
C    1.3068487241379312    1.3102510689655171    -0.2873885517241379
C    2.5812027241379307    0.7448800689655172    -0.2971815517241379
H    3.385087724137931    1.2793680689655171    -0.7846865517241379
C    -1.1168162758620688    1.2651360689655171    0.4203244482758621
O    -1.2606222758620689    2.4213810689655175    0.741730448275862
C    -2.313361275862069    0.40184506896551725    0.1452914482758621
C    -2.251433275862069    -0.7107779310344828    -0.6882195517241378
C    -3.534515275862069    0.7684500689655173    0.705222448275862
C    -3.394730275862069    -1.4473629310344829    -0.9568835517241381
H    -1.3101642758620689    -0.9932989310344829    -1.140039551724138
C    -4.671713275862069    0.02369006896551723    0.4503834482758621
H    -3.5719842758620692    1.6455220689655172    1.336883448275862
C    -4.603332275862068    -1.0852739310344828    -0.3828185517241379
H    -3.341309275862069    -2.3041529310344826    -1.615228551724138
H    -5.615068275862068    0.30802206896551726    0.8972854482758621
H    -5.494159275862069    -1.6648629310344827    -0.5867205517241378
H    1.933219724137931    -2.1131469310344824    1.391999448275862
O    4.004751724137932    -1.0934609310344827    0.3572304482758621
C    5.113187724137932    -0.45214493103448283    -0.22870755172413793
H    5.963530724137931    -1.1085179310344828    -0.06605955172413791
H    4.9706357241379315    -0.3100049310344828    -1.303546551724138
H    5.310409724137932    0.5144450689655172    0.24278844827586207
O    1.0733537241379312    2.4912180689655172    -0.8947645517241378
H    1.882667724137931    2.8245570689655173    -1.2809085517241379
H    -0.32650727586206885    -1.1222039310344827    1.3750634482758621
C    5.843390958035257    3.447959664801377    0.3927613425143137
H    5.95940208971566    4.5356284544755106    0.4147175525595138
H    5.648622478553327    3.113571115033346    1.4139063502496645
C    7.093973768890415    2.789669559641914    -0.1795667094863282
H    6.968464236121224    1.7037536760036862    -0.11665393288578417
C    7.278759609381511    3.1583289997358954    -1.646915429743535
C    8.32482160194013    3.162132585278729    0.6415837004655975
H    7.412963863161978    4.2379446283601645    -1.7525725815053887
H    8.15723230512305    2.6664338000584    -2.0676498505149135
H    6.405169829395105    2.8757401975691255    -2.2391057417106546
H    8.171903531334769    2.953963749747817    1.7028764131345118
H    9.201609152136685    2.602296469388957    0.3112573461724044
H    8.54622946307492    4.228628132796712    0.5368677391336814
H    4.960450706264611    3.2263508219377135    -0.21287619838817382
