43
IE = -2.258 kcal/mol
C    2.8035907241379308    -0.4830889310344828    0.31171544827586206
C    1.7467487241379311    -1.1601059310344828    0.919205448275862
C    0.4922377241379311    -0.5957459310344828    0.9020494482758621
C    0.23824372413793113    0.6453840689655173    0.3159804482758621
C    1.3068487241379312    1.3102510689655171    -0.2873885517241379
C    2.5812027241379307    0.7448800689655172    -0.2971815517241379
H    3.385087724137931    1.2793680689655171    -0.7846865517241379
C    -1.1168162758620688    1.2651360689655171    0.4203244482758621
O    -1.2606222758620689    2.4213810689655175    0.741730448275862
C    -2.313361275862069    0.40184506896551725    0.1452914482758621
C    -2.251433275862069    -0.7107779310344828    -0.6882195517241378
C    -3.534515275862069    0.7684500689655173    0.705222448275862
C    -3.394730275862069    -1.4473629310344829    -0.9568835517241381
H    -1.3101642758620689    -0.9932989310344829    -1.140039551724138
C    -4.671713275862069    0.02369006896551723    0.4503834482758621
H    -3.5719842758620692    1.6455220689655172    1.336883448275862
C    -4.603332275862068    -1.0852739310344828    -0.3828185517241379
H    -3.341309275862069    -2.3041529310344826    -1.615228551724138
H    -5.615068275862068    0.30802206896551726    0.8972854482758621
H    -5.494159275862069    -1.6648629310344827    -0.5867205517241378
H    1.933219724137931    -2.1131469310344824    1.391999448275862
O    4.004751724137932    -1.0934609310344827    0.3572304482758621
C    5.113187724137932    -0.45214493103448283    -0.22870755172413793
H    5.963530724137931    -1.1085179310344828    -0.06605955172413791
H    4.9706357241379315    -0.3100049310344828    -1.303546551724138
H    5.310409724137932    0.5144450689655172    0.24278844827586207
O    1.0733537241379312    2.4912180689655172    -0.8947645517241378
H    1.882667724137931    2.8245570689655173    -1.2809085517241379
H    -0.32650727586206885    -1.1222039310344827    1.3750634482758621
C    4.359827227637916    2.928798740695866    1.9964072125689332
H    3.8011903736487245    2.9544017000159393    1.0552265966418064
C    3.384308701971118    3.0532216122744367    3.16023402627162
C    5.43469492747943    4.0115537943159545    1.9646264848811752
H    3.914367538212318    3.0139408069092473    4.115823404250962
H    2.8262915520293026    3.989581399635198    3.124794662045435
H    2.656757364769499    2.2404994692441287    3.142877708708353
H    5.982369235787185    4.0056889582825255    2.9117492172081163
H    6.165151978514715    3.7683561898401186    1.1875890483405083
C    4.879191173126814    5.4083630962266644    1.7146100706480685
H    4.2030234525403865    5.717616991048375    2.5116804073376984
H    5.679658195990331    6.146757013519251    1.6606755856137374
H    4.321491559031929    5.446197765002221    0.7751586693714888
H    4.83859760487508    1.9476035408702936    2.045490039096366
