44
IE = -1.655 kcal/mol
C    2.8035907241379308    -0.4830889310344828    0.31171544827586206
C    1.7467487241379311    -1.1601059310344828    0.919205448275862
C    0.4922377241379311    -0.5957459310344828    0.9020494482758621
C    0.23824372413793113    0.6453840689655173    0.3159804482758621
C    1.3068487241379312    1.3102510689655171    -0.2873885517241379
C    2.5812027241379307    0.7448800689655172    -0.2971815517241379
H    3.385087724137931    1.2793680689655171    -0.7846865517241379
C    -1.1168162758620688    1.2651360689655171    0.4203244482758621
O    -1.2606222758620689    2.4213810689655175    0.741730448275862
C    -2.313361275862069    0.40184506896551725    0.1452914482758621
C    -2.251433275862069    -0.7107779310344828    -0.6882195517241378
C    -3.534515275862069    0.7684500689655173    0.705222448275862
C    -3.394730275862069    -1.4473629310344829    -0.9568835517241381
H    -1.3101642758620689    -0.9932989310344829    -1.140039551724138
C    -4.671713275862069    0.02369006896551723    0.4503834482758621
H    -3.5719842758620692    1.6455220689655172    1.336883448275862
C    -4.603332275862068    -1.0852739310344828    -0.3828185517241379
H    -3.341309275862069    -2.3041529310344826    -1.615228551724138
H    -5.615068275862068    0.30802206896551726    0.8972854482758621
H    -5.494159275862069    -1.6648629310344827    -0.5867205517241378
H    1.933219724137931    -2.1131469310344824    1.391999448275862
O    4.004751724137932    -1.0934609310344827    0.3572304482758621
C    5.113187724137932    -0.45214493103448283    -0.22870755172413793
H    5.963530724137931    -1.1085179310344828    -0.06605955172413791
H    4.9706357241379315    -0.3100049310344828    -1.303546551724138
H    5.310409724137932    0.5144450689655172    0.24278844827586207
O    1.0733537241379312    2.4912180689655172    -0.8947645517241378
H    1.882667724137931    2.8245570689655173    -1.2809085517241379
H    -0.32650727586206885    -1.1222039310344827    1.3750634482758621
C    4.722143245861461    5.62053334304182    3.3019276697652615
C    5.617051200404259    6.144993182414446    2.384008802153537
C    5.971723528373922    5.409423390756917    1.261939084390353
C    5.44436663402949    4.142677723289813    1.0410971842755188
C    4.5411459520104005    3.627024687633983    1.9687042525379026
C    4.184874885477444    4.358073593250122    3.090994269255022
H    4.444151010346109    6.1920138359322845    4.176906670570212
H    6.039947980730818    7.128937120868834    2.540199458051926
H    6.6712329037244755    5.825574839906009    0.5471779185907237
H    4.105356126120307    2.6454233821817983    1.813552589077524
H    3.4867836108687396    3.9407811779713726    3.804762624114566
C    5.857401923658235    3.340014608406991    -0.16331981367267848
H    4.98950803489928    2.951711726629225    -0.6991981500101436
H    6.44317195524798    3.9367844310000275    -0.8619346697797833
H    6.466118485131552    2.4828300385042876    0.12993709962583572
