43
IE = -0.622 kcal/mol
C    2.8035907241379308    -0.4830889310344828    0.31171544827586206
C    1.7467487241379311    -1.1601059310344828    0.919205448275862
C    0.4922377241379311    -0.5957459310344828    0.9020494482758621
C    0.23824372413793113    0.6453840689655173    0.3159804482758621
C    1.3068487241379312    1.3102510689655171    -0.2873885517241379
C    2.5812027241379307    0.7448800689655172    -0.2971815517241379
H    3.385087724137931    1.2793680689655171    -0.7846865517241379
C    -1.1168162758620688    1.2651360689655171    0.4203244482758621
O    -1.2606222758620689    2.4213810689655175    0.741730448275862
C    -2.313361275862069    0.40184506896551725    0.1452914482758621
C    -2.251433275862069    -0.7107779310344828    -0.6882195517241378
C    -3.534515275862069    0.7684500689655173    0.705222448275862
C    -3.394730275862069    -1.4473629310344829    -0.9568835517241381
H    -1.3101642758620689    -0.9932989310344829    -1.140039551724138
C    -4.671713275862069    0.02369006896551723    0.4503834482758621
H    -3.5719842758620692    1.6455220689655172    1.336883448275862
C    -4.603332275862068    -1.0852739310344828    -0.3828185517241379
H    -3.341309275862069    -2.3041529310344826    -1.615228551724138
H    -5.615068275862068    0.30802206896551726    0.8972854482758621
H    -5.494159275862069    -1.6648629310344827    -0.5867205517241378
H    1.933219724137931    -2.1131469310344824    1.391999448275862
O    4.004751724137932    -1.0934609310344827    0.3572304482758621
C    5.113187724137932    -0.45214493103448283    -0.22870755172413793
H    5.963530724137931    -1.1085179310344828    -0.06605955172413791
H    4.9706357241379315    -0.3100049310344828    -1.303546551724138
H    5.310409724137932    0.5144450689655172    0.24278844827586207
O    1.0733537241379312    2.4912180689655172    -0.8947645517241378
H    1.882667724137931    2.8245570689655173    -1.2809085517241379
H    -0.32650727586206885    -1.1222039310344827    1.3750634482758621
C    9.919183350386534    1.2881689608231155    -0.184224528591447
H    9.314460479757752    0.51043742853868    -0.6591580157512946
H    10.95784359429694    0.9546913021922218    -0.189978179283871
C    9.417486505347686    1.5628983179470786    1.229872224462205
H    10.083128684008916    2.2995812021438025    1.6916572827075274
C    8.013291280676297    2.156314858888984    1.1887728139672429
C    9.450012571840423    0.2987516706929413    2.083867544681321
H    7.337067070334171    1.4892532506797127    0.6478413783470724
H    7.6103841570081014    2.297220419271434    2.192616165488627
H    8.00268544001659    3.1219199592954356    0.6804507907443441
H    10.462929522509036    -0.0960956831223161    2.1793580620851905
H    9.072524064073827    0.491123060391213    3.0891888992487453
H    8.825344957896316    -0.48399474140918675    1.644405932849614
H    9.852210474213878    2.1807361010479256    -0.808046094688997
