45
IE = -2.975 kcal/mol
C    2.8035907241379308    -0.4830889310344828    0.31171544827586206
C    1.7467487241379311    -1.1601059310344828    0.919205448275862
C    0.4922377241379311    -0.5957459310344828    0.9020494482758621
C    0.23824372413793113    0.6453840689655173    0.3159804482758621
C    1.3068487241379312    1.3102510689655171    -0.2873885517241379
C    2.5812027241379307    0.7448800689655172    -0.2971815517241379
H    3.385087724137931    1.2793680689655171    -0.7846865517241379
C    -1.1168162758620688    1.2651360689655171    0.4203244482758621
O    -1.2606222758620689    2.4213810689655175    0.741730448275862
C    -2.313361275862069    0.40184506896551725    0.1452914482758621
C    -2.251433275862069    -0.7107779310344828    -0.6882195517241378
C    -3.534515275862069    0.7684500689655173    0.705222448275862
C    -3.394730275862069    -1.4473629310344829    -0.9568835517241381
H    -1.3101642758620689    -0.9932989310344829    -1.140039551724138
C    -4.671713275862069    0.02369006896551723    0.4503834482758621
H    -3.5719842758620692    1.6455220689655172    1.336883448275862
C    -4.603332275862068    -1.0852739310344828    -0.3828185517241379
H    -3.341309275862069    -2.3041529310344826    -1.615228551724138
H    -5.615068275862068    0.30802206896551726    0.8972854482758621
H    -5.494159275862069    -1.6648629310344827    -0.5867205517241378
H    1.933219724137931    -2.1131469310344824    1.391999448275862
O    4.004751724137932    -1.0934609310344827    0.3572304482758621
C    5.113187724137932    -0.45214493103448283    -0.22870755172413793
H    5.963530724137931    -1.1085179310344828    -0.06605955172413791
H    4.9706357241379315    -0.3100049310344828    -1.303546551724138
H    5.310409724137932    0.5144450689655172    0.24278844827586207
O    1.0733537241379312    2.4912180689655172    -0.8947645517241378
H    1.882667724137931    2.8245570689655173    -1.2809085517241379
H    -0.32650727586206885    -1.1222039310344827    1.3750634482758621
C    7.244561432015037    3.082385075372951    0.46017636411258345
C    7.788526430825479    1.7337438154221907    0.8555954008483074
C    7.6053473230935165    1.2319021845093403    2.1418425322601027
C    8.110323916812876    -0.0016269136837391692    2.5200768923892936
C    8.818334507406155    -0.7665405214503593    1.6031038502341584
O    9.306521326438938    -1.9723576456525032    2.0200254782620437
C    9.007605011575277    -0.28926295618351755    0.31351184712929103
C    8.495643261555596    0.948020933460807    -0.04822517821133555
H    6.455994783857143    3.403424774948916    1.1414057866945866
H    6.832613287579976    3.0695599554193325    -0.5507543542119703
H    8.024345820009644    3.846355187513583    0.480625665251759
H    7.054943548166946    1.8182241354926123    2.8699730055056647
H    7.964033886804275    -0.38135131670854233    3.522000846110912
H    9.772357549299288    -2.4008663879878673    1.2944926522439177
H    9.557081698797127    -0.8793100814820041    -0.41127806938325845
H    8.65826506850064    1.3062272541285405    -1.0586474212072687
