59
IE = -3.556 kcal/mol
C    -5.945350681818182    0.23278688636363637    0.16006995454545458
C    -5.172542681818181    1.3434288863636366    0.4925409545454545
C    -3.7998686818181815    1.2793748863636365    0.39736195454545453
C    -3.1473386818181814    0.11847288636363638    -0.02927704545454544
C    -3.9371006818181815    -0.9809231136363636    -0.35633604545454545
C    -5.3173046818181815    -0.9356211136363636    -0.26665404545454546
H    -5.670811681818182    2.2442728863636363    0.8226839545454546
H    -3.2111576818181815    2.1500078863636363    0.6591099545454546
H    -3.4746566818181814    -1.9003121136363634    -0.6895730454545455
H    -5.890931681818182    -1.8116101136363636    -0.5298930454545454
O    -7.280922681818182    0.38014688636363636    0.2814289545454545
C    -8.110493681818182    -0.7119621136363636    -0.04155404545454544
H    -7.905391681818181    -1.5729501136363635    0.6002269545454546
H    -9.130393681818182    -0.3767111136363636    0.12538195454545453
H    -7.995182681818181    -1.0053401136363636    -1.0883910454545456
C    -1.6885196818181818    0.1151798863636364    -0.11031904545454545
H    -1.2043856818181817    1.0389918863636365    0.18673795454545455
C    -0.9047716818181817    -0.8889731136363637    -0.5051070454545454
H    -1.2957356818181818    -1.8473391136363635    -0.8184200454545454
C    0.5661873181818183    -0.8176351136363637    -0.5564920454545454
O    1.2535253181818184    -1.7482521136363636    -0.9030040454545454
O    1.0536433181818183    0.3733468863636364    -0.18911604545454547
C    2.4877833181818185    0.5414958863636363    -0.18817904545454545
H    2.8849863181818183    -0.05701711363636361    -1.0092380454545455
C    3.0103743181818183    0.017014886363636388    1.1451719545454544
H    2.6290143181818184    -0.9973781136363636    1.2700839545454545
H    2.5647793181818184    0.6213728863636364    1.9394939545454546
C    2.7346373181818184    2.0235678863636366    -0.45721604545454547
H    1.9231723181818183    2.3720828863636365    -1.0974950454545456
H    2.6544743181818182    2.5825578863636367    0.47880195454545454
C    4.060457318181818    2.3306668863636366    -1.1452480454545455
H    4.128206318181818    3.3932688863636367    -1.3785320454545456
H    4.920967318181819    2.0744828863636364    -0.5298220454545455
H    4.147235318181818    1.7791168863636364    -2.0829780454545452
C    4.529157318181818    0.002277886363636388    1.3127209545454546
H    4.910828318181818    1.0251098863636365    1.3471389545454544
H    4.745812318181819    -0.4278371136363636    2.2944199545454547
C    5.292977318181818    -0.7928611136363636    0.25283095454545457
H    6.356103318181819    -0.7603821136363637    0.5026069545454546
H    5.199829318181818    -0.30302511363636364    -0.7195700454545454
C    4.841835318181818    -2.2437721136363633    0.12912195454545455
H    5.478644318181819    -2.7908341136363637    -0.5665030454545454
H    4.892125318181819    -2.7509921136363635    1.0953669545454545
H    3.816104318181818    -2.3172971136363634    -0.23438304545454547
C    -4.292432460838818    -2.9090302140371906    4.310712348082198
C    -4.783058401449417    -1.9882053075826573    3.394030992082555
C    -4.337922887393539    -0.6771172005322432    3.4195739130392298
C    -3.3858137699550976    -0.26104874475219964    4.3462767672853415
C    -2.9087848264651286    -1.1882939087295497    5.265212873107461
C    -3.359111797277515    -2.50288863419171    5.252145706170048
H    -4.633878085161529    -3.9355023112088    4.285338092844825
H    -5.516509201266228    -2.2865481807220998    2.65369863612344
H    -4.7253228759082555    0.03581341295374673    2.7022787814777542
H    -2.1712985703016248    -0.8796196022899742    5.995961737281487
H    -2.9816505122570316    -3.2113380116045542    5.978899867572863
C    -2.877203723726529    1.154658265000729    4.316415355015594
H    -2.276804723671924    1.3251360089577746    3.420200914930589
H    -3.7028323242081    1.866846230452274    4.295427548638581
H    -2.2575599954547214    1.3721918598632792    5.185034138966937
