61
IE = -6.011 kcal/mol
C    -5.945350681818182    0.23278688636363637    0.16006995454545458
C    -5.172542681818181    1.3434288863636366    0.4925409545454545
C    -3.7998686818181815    1.2793748863636365    0.39736195454545453
C    -3.1473386818181814    0.11847288636363638    -0.02927704545454544
C    -3.9371006818181815    -0.9809231136363636    -0.35633604545454545
C    -5.3173046818181815    -0.9356211136363636    -0.26665404545454546
H    -5.670811681818182    2.2442728863636363    0.8226839545454546
H    -3.2111576818181815    2.1500078863636363    0.6591099545454546
H    -3.4746566818181814    -1.9003121136363634    -0.6895730454545455
H    -5.890931681818182    -1.8116101136363636    -0.5298930454545454
O    -7.280922681818182    0.38014688636363636    0.2814289545454545
C    -8.110493681818182    -0.7119621136363636    -0.04155404545454544
H    -7.905391681818181    -1.5729501136363635    0.6002269545454546
H    -9.130393681818182    -0.3767111136363636    0.12538195454545453
H    -7.995182681818181    -1.0053401136363636    -1.0883910454545456
C    -1.6885196818181818    0.1151798863636364    -0.11031904545454545
H    -1.2043856818181817    1.0389918863636365    0.18673795454545455
C    -0.9047716818181817    -0.8889731136363637    -0.5051070454545454
H    -1.2957356818181818    -1.8473391136363635    -0.8184200454545454
C    0.5661873181818183    -0.8176351136363637    -0.5564920454545454
O    1.2535253181818184    -1.7482521136363636    -0.9030040454545454
O    1.0536433181818183    0.3733468863636364    -0.18911604545454547
C    2.4877833181818185    0.5414958863636363    -0.18817904545454545
H    2.8849863181818183    -0.05701711363636361    -1.0092380454545455
C    3.0103743181818183    0.017014886363636388    1.1451719545454544
H    2.6290143181818184    -0.9973781136363636    1.2700839545454545
H    2.5647793181818184    0.6213728863636364    1.9394939545454546
C    2.7346373181818184    2.0235678863636366    -0.45721604545454547
H    1.9231723181818183    2.3720828863636365    -1.0974950454545456
H    2.6544743181818182    2.5825578863636367    0.47880195454545454
C    4.060457318181818    2.3306668863636366    -1.1452480454545455
H    4.128206318181818    3.3932688863636367    -1.3785320454545456
H    4.920967318181819    2.0744828863636364    -0.5298220454545455
H    4.147235318181818    1.7791168863636364    -2.0829780454545452
C    4.529157318181818    0.002277886363636388    1.3127209545454546
H    4.910828318181818    1.0251098863636365    1.3471389545454544
H    4.745812318181819    -0.4278371136363636    2.2944199545454547
C    5.292977318181818    -0.7928611136363636    0.25283095454545457
H    6.356103318181819    -0.7603821136363637    0.5026069545454546
H    5.199829318181818    -0.30302511363636364    -0.7195700454545454
C    4.841835318181818    -2.2437721136363633    0.12912195454545455
H    5.478644318181819    -2.7908341136363637    -0.5665030454545454
H    4.892125318181819    -2.7509921136363635    1.0953669545454545
H    3.816104318181818    -2.3172971136363634    -0.23438304545454547
N    -0.5650527296251704    -7.957591229650494    0.42436350052348104
H    0.3574690836290165    -8.389892064104892    0.49853201383944645
H    -1.220530350075545    -8.52640550277564    0.9643086136839436
C    -0.5576431827317303    -6.524496161743057    0.9264269488011756
H    0.15196584736772611    -5.9815662467528545    0.30414454894611387
H    -0.17229742566523817    -6.569021314042009    1.942851386997131
C    -1.9462671565535963    -5.923532128201903    0.8750602608211858
H    -2.3122527767902796    -5.913245023742723    -0.15674761577494356
H    -2.6376380665808745    -6.538214357573566    1.4628315375837047
C    -1.92495443888382    -4.495190061706348    1.4228137287032117
H    -1.3294481302015313    -3.8678465350890265    0.7545125981265249
H    -1.41421411228686    -4.488814409423747    2.389436994707196
C    -3.3229228760120395    -3.9162243580939875    1.5825226478602405
H    -3.9035622247527724    -4.480892105009028    2.313441363049365
H    -3.268621691234586    -2.8842144301454584    1.9238694018148716
H    -3.86744038153913    -3.923368103200468    0.6368613065430048
H    -0.8552966012246543    -8.000744536339159    -0.55391382827472
