58
IE = -1.768 kcal/mol
C    -5.945350681818182    0.23278688636363637    0.16006995454545458
C    -5.172542681818181    1.3434288863636366    0.4925409545454545
C    -3.7998686818181815    1.2793748863636365    0.39736195454545453
C    -3.1473386818181814    0.11847288636363638    -0.02927704545454544
C    -3.9371006818181815    -0.9809231136363636    -0.35633604545454545
C    -5.3173046818181815    -0.9356211136363636    -0.26665404545454546
H    -5.670811681818182    2.2442728863636363    0.8226839545454546
H    -3.2111576818181815    2.1500078863636363    0.6591099545454546
H    -3.4746566818181814    -1.9003121136363634    -0.6895730454545455
H    -5.890931681818182    -1.8116101136363636    -0.5298930454545454
O    -7.280922681818182    0.38014688636363636    0.2814289545454545
C    -8.110493681818182    -0.7119621136363636    -0.04155404545454544
H    -7.905391681818181    -1.5729501136363635    0.6002269545454546
H    -9.130393681818182    -0.3767111136363636    0.12538195454545453
H    -7.995182681818181    -1.0053401136363636    -1.0883910454545456
C    -1.6885196818181818    0.1151798863636364    -0.11031904545454545
H    -1.2043856818181817    1.0389918863636365    0.18673795454545455
C    -0.9047716818181817    -0.8889731136363637    -0.5051070454545454
H    -1.2957356818181818    -1.8473391136363635    -0.8184200454545454
C    0.5661873181818183    -0.8176351136363637    -0.5564920454545454
O    1.2535253181818184    -1.7482521136363636    -0.9030040454545454
O    1.0536433181818183    0.3733468863636364    -0.18911604545454547
C    2.4877833181818185    0.5414958863636363    -0.18817904545454545
H    2.8849863181818183    -0.05701711363636361    -1.0092380454545455
C    3.0103743181818183    0.017014886363636388    1.1451719545454544
H    2.6290143181818184    -0.9973781136363636    1.2700839545454545
H    2.5647793181818184    0.6213728863636364    1.9394939545454546
C    2.7346373181818184    2.0235678863636366    -0.45721604545454547
H    1.9231723181818183    2.3720828863636365    -1.0974950454545456
H    2.6544743181818182    2.5825578863636367    0.47880195454545454
C    4.060457318181818    2.3306668863636366    -1.1452480454545455
H    4.128206318181818    3.3932688863636367    -1.3785320454545456
H    4.920967318181819    2.0744828863636364    -0.5298220454545455
H    4.147235318181818    1.7791168863636364    -2.0829780454545452
C    4.529157318181818    0.002277886363636388    1.3127209545454546
H    4.910828318181818    1.0251098863636365    1.3471389545454544
H    4.745812318181819    -0.4278371136363636    2.2944199545454547
C    5.292977318181818    -0.7928611136363636    0.25283095454545457
H    6.356103318181819    -0.7603821136363637    0.5026069545454546
H    5.199829318181818    -0.30302511363636364    -0.7195700454545454
C    4.841835318181818    -2.2437721136363633    0.12912195454545455
H    5.478644318181819    -2.7908341136363637    -0.5665030454545454
H    4.892125318181819    -2.7509921136363635    1.0953669545454545
H    3.816104318181818    -2.3172971136363634    -0.23438304545454547
C    -5.586339033194394    3.130120790043836    3.8460666946009665
H    -5.450771469194123    2.26714278230645    3.188921972275769
C    -6.9600110006024565    3.7479322397920756    3.6081026260108926
C    -4.4386396012280285    4.121944808545634    3.6473373569825505
H    -7.062765336396963    4.683978978093124    4.1627729529334
H    -7.112769959489191    3.975137285970585    2.5515461174490746
H    -7.764645354231438    3.0803719703605075    3.9180154232373856
H    -4.453914997229646    4.8447855834949625    4.4683930047406335
H    -3.4896697162780477    3.584298362738225    3.727617589763425
C    -4.488403314211621    4.892248513047126    2.332219053356094
H    -5.408657415105314    5.471721957910721    2.250473010774152
H    -3.655590973819832    5.5929867621930365    2.259615061649468
H    -4.439820240392919    4.2249995528924424    1.4689705841885905
H    -5.530432697896145    2.740708798000021    4.8649353712008985
