63
IE = -10.461 kcal/mol
C    -5.945350681818182    0.23278688636363637    0.16006995454545458
C    -5.172542681818181    1.3434288863636366    0.4925409545454545
C    -3.7998686818181815    1.2793748863636365    0.39736195454545453
C    -3.1473386818181814    0.11847288636363638    -0.02927704545454544
C    -3.9371006818181815    -0.9809231136363636    -0.35633604545454545
C    -5.3173046818181815    -0.9356211136363636    -0.26665404545454546
H    -5.670811681818182    2.2442728863636363    0.8226839545454546
H    -3.2111576818181815    2.1500078863636363    0.6591099545454546
H    -3.4746566818181814    -1.9003121136363634    -0.6895730454545455
H    -5.890931681818182    -1.8116101136363636    -0.5298930454545454
O    -7.280922681818182    0.38014688636363636    0.2814289545454545
C    -8.110493681818182    -0.7119621136363636    -0.04155404545454544
H    -7.905391681818181    -1.5729501136363635    0.6002269545454546
H    -9.130393681818182    -0.3767111136363636    0.12538195454545453
H    -7.995182681818181    -1.0053401136363636    -1.0883910454545456
C    -1.6885196818181818    0.1151798863636364    -0.11031904545454545
H    -1.2043856818181817    1.0389918863636365    0.18673795454545455
C    -0.9047716818181817    -0.8889731136363637    -0.5051070454545454
H    -1.2957356818181818    -1.8473391136363635    -0.8184200454545454
C    0.5661873181818183    -0.8176351136363637    -0.5564920454545454
O    1.2535253181818184    -1.7482521136363636    -0.9030040454545454
O    1.0536433181818183    0.3733468863636364    -0.18911604545454547
C    2.4877833181818185    0.5414958863636363    -0.18817904545454545
H    2.8849863181818183    -0.05701711363636361    -1.0092380454545455
C    3.0103743181818183    0.017014886363636388    1.1451719545454544
H    2.6290143181818184    -0.9973781136363636    1.2700839545454545
H    2.5647793181818184    0.6213728863636364    1.9394939545454546
C    2.7346373181818184    2.0235678863636366    -0.45721604545454547
H    1.9231723181818183    2.3720828863636365    -1.0974950454545456
H    2.6544743181818182    2.5825578863636367    0.47880195454545454
C    4.060457318181818    2.3306668863636366    -1.1452480454545455
H    4.128206318181818    3.3932688863636367    -1.3785320454545456
H    4.920967318181819    2.0744828863636364    -0.5298220454545455
H    4.147235318181818    1.7791168863636364    -2.0829780454545452
C    4.529157318181818    0.002277886363636388    1.3127209545454546
H    4.910828318181818    1.0251098863636365    1.3471389545454544
H    4.745812318181819    -0.4278371136363636    2.2944199545454547
C    5.292977318181818    -0.7928611136363636    0.25283095454545457
H    6.356103318181819    -0.7603821136363637    0.5026069545454546
H    5.199829318181818    -0.30302511363636364    -0.7195700454545454
C    4.841835318181818    -2.2437721136363633    0.12912195454545455
H    5.478644318181819    -2.7908341136363637    -0.5665030454545454
H    4.892125318181819    -2.7509921136363635    1.0953669545454545
H    3.816104318181818    -2.3172971136363634    -0.23438304545454547
N    -0.6618664036773522    3.078213134776918    -1.409454672078858
H    -0.022806123492950976    2.4601610670486007    -0.9277855412306122
H    -0.9470689371477963    2.803457319605713    -2.333881795546593
C    -1.3061916269425446    4.051493425812126    -0.7739264696973589
N    -2.166988755008309    4.819080855700096    -1.4526927200448043
H    -2.7360058646264647    5.502033421028807    -0.9844048942172642
H    -2.300219248593326    4.703330140395104    -2.4411674654112634
N    -1.1036224647509434    4.275114414426581    0.5167018457883197
H    -1.5231519482776121    5.100537304019424    0.9161291762823445
C    -0.20433510404862992    3.511404502739607    1.3898775641267729
H    -0.25116561996424636    2.454725420842697    1.1225596155437236
H    0.8235253707419893    3.8441671787598235    1.2315804520395406
C    -0.6142047931487725    3.6720758642816484    2.8452245506911433
H    -1.6703652371107167    3.410026140496265    2.949562399488574
H    -0.5113483621648033    4.719767481203695    3.142990449894554
C    0.23440996861713465    2.7904172260723836    3.7525132048688903
H    -0.051587801744680854    2.9330594455293006    4.79224409743393
H    0.1001667250916475    1.7347102374750911    3.5133285105679177
H    1.2946598574538601    3.0296499458320705    3.663711477340223
