44
ligand global-minimum conformer, aligned onto s3_orig_f12's bound pose
C    -8.228113431305085    -4.223702014960385    4.454798662248233
C    -8.253353915771974    -3.905007509944959    2.96567132082947
C    -7.095955440972665    -3.0097103966535945    2.5414308449415666
C    -7.12759008764258    -2.6779848769442203    1.0553480328516234
C    -6.017543779202531    -1.7474896916990783    0.5991621534478773
C    -6.1065488163928245    -1.3976699947025726    -0.875434018426958
C    -5.029138288524383    -0.4198036046010394    -1.3241467725539708
O    -4.744320854997949    -2.4089456794350665    0.7976263576041489
C    -4.000075507730096    -2.046348574292378    1.8596183941145932
O    -4.3247356592338    -1.2033958516031782    2.660559133360256
C    -2.7447452907330168    -2.824896138010322    1.8967610854630124
C    -1.9020221752761597    -2.671733309617564    2.917332096893145
C    -0.6216920515039983    -3.351335268453442    3.1163731707524196
C    0.03889870842004317    -3.204560359492301    4.329666315729251
C    1.2533332153894619    -3.829339377849782    4.585120969083704
C    1.8318670138728614    -4.615253047944936    3.5972468504834816
O    3.0159687432647133    -5.263683382258716    3.727030753034204
C    3.71878962989221    -5.107371041563804    4.94590488032369
C    1.1860151518234843    -4.770838834831203    2.3677662636673
C    -0.018515322639611753    -4.14917255888817    2.135302712461856
H    -8.295803459087043    -3.3105633221093607    5.049601495746742
H    -7.298313810338618    -4.7264939095303955    4.728554857125068
H    -9.056644301355103    -4.872349669893573    4.741305202263991
H    -9.199872096557618    -3.4191525682065564    2.7079288599184568
H    -8.22009488259859    -4.834552641903144    2.3885451886433686
H    -6.152310905028189    -3.5048670290491986    2.789875565434655
H    -7.112327809254618    -2.0826564947762582    3.122458643488385
H    -7.074573142710545    -3.599371534952208    0.465627818606583
H    -8.081680444178975    -2.2009715958756635    0.8086504090015156
H    -6.01653385849356    -0.839280587947167    1.204720622167525
H    -6.048713199152287    -2.3215951990346553    -1.458021459705336
H    -7.09751460401542    -0.9728970087543289    -1.055702603356993
H    -4.034293050169145    -0.8359694774074624    -1.1651148834766665
H    -5.093077472960882    0.5162672781127235    -0.7660485932993311
H    -5.127830944702854    -0.18602956241481783    -2.3842747934006097
H    -2.5716750484639803    -3.511968342980369    1.0794012018852022
H    -2.198162965166422    -1.9699930308871856    3.691988679492815
H    -0.40820770070510326    -2.58928036119229    5.101535964548986
H    1.729530638020631    -3.6928132643569653    5.544549659032141
H    3.1449262100016733    -5.500474275415683    5.788844955005706
H    3.962301817688379    -4.058174570400776    5.129933806314986
H    4.6376053281084175    -5.676341984137775    4.838719826583832
H    1.6593575542187993    -5.3821071706008246    1.611108008098748
H    -0.49500864591709703    -4.273003037572988    1.1713292714031978
