160
placed: glutamic isoleucine leucine serine tryptophan tyrosine phenylalanine lysine aspartic
C    -5.945350681818182    0.23278688636363637    0.16006995454545458
C    -5.172542681818181    1.3434288863636366    0.4925409545454545
C    -3.7998686818181815    1.2793748863636365    0.39736195454545453
C    -3.1473386818181814    0.11847288636363638    -0.02927704545454544
C    -3.9371006818181815    -0.9809231136363636    -0.35633604545454545
C    -5.3173046818181815    -0.9356211136363636    -0.26665404545454546
H    -5.670811681818182    2.2442728863636363    0.8226839545454546
H    -3.2111576818181815    2.1500078863636363    0.6591099545454546
H    -3.4746566818181814    -1.9003121136363634    -0.6895730454545455
H    -5.890931681818182    -1.8116101136363636    -0.5298930454545454
O    -7.280922681818182    0.38014688636363636    0.2814289545454545
C    -8.110493681818182    -0.7119621136363636    -0.04155404545454544
H    -7.905391681818181    -1.5729501136363635    0.6002269545454546
H    -9.130393681818182    -0.3767111136363636    0.12538195454545453
H    -7.995182681818181    -1.0053401136363636    -1.0883910454545456
C    -1.6885196818181818    0.1151798863636364    -0.11031904545454545
H    -1.2043856818181817    1.0389918863636365    0.18673795454545455
C    -0.9047716818181817    -0.8889731136363637    -0.5051070454545454
H    -1.2957356818181818    -1.8473391136363635    -0.8184200454545454
C    0.5661873181818183    -0.8176351136363637    -0.5564920454545454
O    1.2535253181818184    -1.7482521136363636    -0.9030040454545454
O    1.0536433181818183    0.3733468863636364    -0.18911604545454547
C    2.4877833181818185    0.5414958863636363    -0.18817904545454545
H    2.8849863181818183    -0.05701711363636361    -1.0092380454545455
C    3.0103743181818183    0.017014886363636388    1.1451719545454544
H    2.6290143181818184    -0.9973781136363636    1.2700839545454545
H    2.5647793181818184    0.6213728863636364    1.9394939545454546
C    2.7346373181818184    2.0235678863636366    -0.45721604545454547
H    1.9231723181818183    2.3720828863636365    -1.0974950454545456
H    2.6544743181818182    2.5825578863636367    0.47880195454545454
C    4.060457318181818    2.3306668863636366    -1.1452480454545455
H    4.128206318181818    3.3932688863636367    -1.3785320454545456
H    4.920967318181819    2.0744828863636364    -0.5298220454545455
H    4.147235318181818    1.7791168863636364    -2.0829780454545452
C    4.529157318181818    0.002277886363636388    1.3127209545454546
H    4.910828318181818    1.0251098863636365    1.3471389545454544
H    4.745812318181819    -0.4278371136363636    2.2944199545454547
C    5.292977318181818    -0.7928611136363636    0.25283095454545457
H    6.356103318181819    -0.7603821136363637    0.5026069545454546
H    5.199829318181818    -0.30302511363636364    -0.7195700454545454
C    4.841835318181818    -2.2437721136363633    0.12912195454545455
H    5.478644318181819    -2.7908341136363637    -0.5665030454545454
H    4.892125318181819    -2.7509921136363635    1.0953669545454545
H    3.816104318181818    -2.3172971136363634    -0.23438304545454547
C    -7.3803950038401    -4.293376355222413    -0.5218293373649292
O    -6.588627882221181    -3.5744687635436563    -1.1849266388169741
O    -8.34225430082724    -3.917093370368813    0.18304469801957335
C    -7.098138213742151    -5.807382023881023    -0.5672926964446711
H    -6.265698547920815    -6.022826135682491    0.10653291666087268
H    -7.965319080541497    -6.380713682752305    -0.2420116139471081
H    -6.7934599651158365    -6.108937656411247    -1.5699241444722116
C    -0.6913789797679439    -2.0302142031433683    3.0624492941409347
H    -0.7729662396667576    -2.0350238479982194    1.9713863399028404
C    -0.1582718667651659    -0.6773636789057944    3.52024475266687
C    0.1695007652379526    -3.2144129024549932    3.498586287263226
H    -0.16518695348566723    -0.5994315981437953    4.610116235719694
H    0.8650857925099252    -0.5133222675515335    3.1824999193221752
H    -0.7648418304805461    0.1389522377425821    3.124376768558283
H    0.2700387293227728    -3.2106820017724655    4.589733002533923
H    -0.35012318389450653    -4.141778149761757    3.239679493386548
C    1.5549406503528413    -3.2194598619848995    2.859340595467237
H    2.1404544243940387    -2.349851003006348    3.165177449823955
H    2.119836556797283    -4.10672912893256    3.1496178188417923
H    1.4858718230807553    -3.206357699556637    1.7678023844133188
H    -1.7070030603525872    -2.160984536326773    3.4458500523860884
C    -4.7732757584083085    -2.9052787098471    3.260437725802202
H    -3.8612907974834725    -2.9686656288395437    3.862418430535277
H    -4.474562863351538    -2.75444767180736    2.2205822794116625
C    -5.641702966029735    -1.7503091885210131    3.7471084698598496
H    -6.5093568916067    -1.6664713721615398    3.081036636401766
C    -6.152890015600798    -2.005108211960603    5.1621661226525335
C    -4.865367414488706    -0.4407231506453725    3.675428623808125
H    -5.32013002410613    -2.2341351153216165    5.833183430256966
H    -6.66830397406351    -1.1293780320724913    5.560814227709833
H    -6.846952697553766    -2.8470350948504777    5.19024850014001
H    -4.42234599341176    -0.29773800552885155    2.6892123666433836
H    -5.512917306639943    0.41300098902085297    3.8808494279247845
H    -4.057398798929524    -0.4331161955025268    4.4130706552157815
H    -5.293388347566769    -3.863025535355612    3.3332880149318203
O    -0.33100792628676795    2.975750332002553    1.0276256443056302
H    0.2605090682152773    2.5663402983066455    0.3854575035615647
C    -0.031191974569959494    2.423647196892657    2.299969684756988
H    0.9737875791574475    2.6996034573605066    2.6350118166695182
H    -0.7532287090462898    2.829819802248377    3.0054356530421984
H    -0.11390933506358399    1.3325909121891801    2.300952932219438
C    -7.631533426482296    6.656133326325271    0.27279427734237416
C    -7.955810946671378    5.29961820554572    0.17741097546428303
C    -7.473001278447661    4.552374118600072    -0.9131990074034287
C    -6.664925099980488    5.117571219100147    -1.8979976170492687
C    -6.349607626996218    6.454391452099928    -1.7702532544841196
C    -6.83404468537317    7.222104769014422    -0.6991302543695624
H    -8.001835553213226    7.250164349128952    1.0987572749313734
H    -6.3014326850309414    4.533849300129314    -2.734694272587057
H    -5.7157729823122745    6.92276256496062    -2.510762130561774
H    -6.572998155562038    8.270647344215114    -0.6382736397638672
C    -8.72109320204138    4.40511141294223    1.0062338071455426
C    -8.673055953889989    3.190919300561731    0.39769560770195234
H    -9.090889600597984    2.248787890952536    0.7105382897809558
N    -7.943637353805096    3.268940578891015    -0.7718874098699884
H    -7.631234627554794    2.4704736618096073    -1.2936323007225652
C    -9.412455618383083    4.766025441691415    2.278103028360583
H    -8.720361918252951    5.2356890201156    2.9801526089776735
H    -10.231791711830299    5.467951324717982    2.1074024639944167
H    -9.825838620841546    3.882550902226477    2.7623689849302404
C    8.664808506866335    0.394126271654433    2.23715078881773
C    8.663517164181505    1.13234521223521    1.0835901199554863
C    7.80640353590442    2.232121199130061    1.0567641018527545
C    7.0077947493890616    2.551762937853615    2.1557079055874544
C    7.060676822925723    1.7424405553595148    3.2864920028742555
C    7.90450088031416    0.6291206919441623    3.347157147908473
H    9.280802288398665    0.8836619866756177    0.22915594142670528
H    7.762202955176705    2.8459087346623018    0.16298246364932992
H    6.429265928286924    1.972765272074433    4.13761208724669
H    7.944030634911392    -0.004977507397472848    4.224174813090993
C    6.0978431542162355    3.7528303379283683    2.11096457319667
H    6.673273922897418    4.678934868647107    2.0517836252379964
H    5.439885071404987    3.7193251086199592    1.2396989901788444
H    5.473724685320046    3.8036676231675672    3.0028349678653457
H    8.626003362669005    -2.062707487458541    2.741083328934659
O    8.487493175905515    -2.8284196019641907    3.310786494248526
H    7.807706182966991    -3.3437564816596383    2.864770067130785
C    -6.60556741712676    -1.0131968480643845    -4.829898333167535
C    -5.973310284209159    -1.999058267489572    -4.088796130877295
C    -4.627375501860281    -1.876682636244854    -3.7705843044632266
C    -3.8905918917582065    -0.7717256808405599    -4.1800845851454875
C    -4.538537643093717    0.2122441437056131    -4.924201031045777
C    -5.880545350903171    0.09453517056215738    -5.2511306770407895
H    -7.6520827538322065    -1.1102727109572132    -5.089358595708391
H    -6.529633358952363    -2.8665708231662133    -3.7539013594999417
H    -4.143562771041995    -2.6550523737768166    -3.191910855719582
H    -3.980808869189589    1.0822342580137336    -5.251610625524738
H    -6.364435672384923    0.8696538378918364    -5.8333383329276
C    -2.4344230217180485    -0.6396379702673849    -3.829965816353386
H    -2.2436394110901827    0.28999294161864825    -3.2909642315971506
H    -2.1090523203706426    -1.461871103930759    -3.1934940747870857
H    -1.8110256587925357    -0.6400308294310467    -4.726360320232125
N    -12.559037816530267    -3.3891198972929097    0.013611737225331369
H    -12.873828712435397    -4.313157724652616    -0.28852368360996167
H    -13.304877034211483    -2.7187392656597993    -0.183452809286727
C    -12.17733732585452    -3.358102532003027    1.4821946518627183
H    -11.430782102579268    -4.138274815912868    1.6183653905431354
H    -13.072412032266334    -3.622090606072281    2.0419078794430745
C    -11.64121932030933    -1.989544779108536    1.8417016314799117
H    -10.856260778202461    -1.7085257261411424    1.131011253495847
H    -12.435853743917221    -1.2420230284671285    1.7551874532435559
C    -11.052483090109675    -1.96989992268137    3.2501323345840074
H    -10.26773784110499    -2.726832000122308    3.3160452115768306
H    -11.820927362361575    -2.2520899055194117    3.9730806043293154
C    -10.485759014895    -0.6009427495467479    3.6038394591936695
H    -11.28201141846077    0.13380435305523966    3.723898894189575
H    -9.928684507345835    -0.6371559171118517    4.5389477100613815
H    -9.80793531293048    -0.2413536520078458    2.827477147137441
H    -11.755027295188764    -3.1250661172570897    -0.5592757179014061
O    -3.9864793093364206    4.207376166271889    1.5628889609982488
C    -2.7696407052505596    4.294806671462177    1.8443997053920802
C    -2.3562964967249265    5.457725773593844    2.7684251686067425
H    -1.9772726644142506    6.275108992405981    2.1494144642733297
H    -3.2098000366848427    5.823725028004745    3.3386896610916463
H    -1.5524146119142204    5.148486633402091    3.437233115986098
O    -1.83805226098025    3.552332291506925    1.4434891328440873
