179
placed: phenylalanine arginine lysine aspartic glutamic isoleucine leucine serine tryptophan tyrosine
C    -5.945350681818182    0.23278688636363637    0.16006995454545458
C    -5.172542681818181    1.3434288863636366    0.4925409545454545
C    -3.7998686818181815    1.2793748863636365    0.39736195454545453
C    -3.1473386818181814    0.11847288636363638    -0.02927704545454544
C    -3.9371006818181815    -0.9809231136363636    -0.35633604545454545
C    -5.3173046818181815    -0.9356211136363636    -0.26665404545454546
H    -5.670811681818182    2.2442728863636363    0.8226839545454546
H    -3.2111576818181815    2.1500078863636363    0.6591099545454546
H    -3.4746566818181814    -1.9003121136363634    -0.6895730454545455
H    -5.890931681818182    -1.8116101136363636    -0.5298930454545454
O    -7.280922681818182    0.38014688636363636    0.2814289545454545
C    -8.110493681818182    -0.7119621136363636    -0.04155404545454544
H    -7.905391681818181    -1.5729501136363635    0.6002269545454546
H    -9.130393681818182    -0.3767111136363636    0.12538195454545453
H    -7.995182681818181    -1.0053401136363636    -1.0883910454545456
C    -1.6885196818181818    0.1151798863636364    -0.11031904545454545
H    -1.2043856818181817    1.0389918863636365    0.18673795454545455
C    -0.9047716818181817    -0.8889731136363637    -0.5051070454545454
H    -1.2957356818181818    -1.8473391136363635    -0.8184200454545454
C    0.5661873181818183    -0.8176351136363637    -0.5564920454545454
O    1.2535253181818184    -1.7482521136363636    -0.9030040454545454
O    1.0536433181818183    0.3733468863636364    -0.18911604545454547
C    2.4877833181818185    0.5414958863636363    -0.18817904545454545
H    2.8849863181818183    -0.05701711363636361    -1.0092380454545455
C    3.0103743181818183    0.017014886363636388    1.1451719545454544
H    2.6290143181818184    -0.9973781136363636    1.2700839545454545
H    2.5647793181818184    0.6213728863636364    1.9394939545454546
C    2.7346373181818184    2.0235678863636366    -0.45721604545454547
H    1.9231723181818183    2.3720828863636365    -1.0974950454545456
H    2.6544743181818182    2.5825578863636367    0.47880195454545454
C    4.060457318181818    2.3306668863636366    -1.1452480454545455
H    4.128206318181818    3.3932688863636367    -1.3785320454545456
H    4.920967318181819    2.0744828863636364    -0.5298220454545455
H    4.147235318181818    1.7791168863636364    -2.0829780454545452
C    4.529157318181818    0.002277886363636388    1.3127209545454546
H    4.910828318181818    1.0251098863636365    1.3471389545454544
H    4.745812318181819    -0.4278371136363636    2.2944199545454547
C    5.292977318181818    -0.7928611136363636    0.25283095454545457
H    6.356103318181819    -0.7603821136363637    0.5026069545454546
H    5.199829318181818    -0.30302511363636364    -0.7195700454545454
C    4.841835318181818    -2.2437721136363633    0.12912195454545455
H    5.478644318181819    -2.7908341136363637    -0.5665030454545454
H    4.892125318181819    -2.7509921136363635    1.0953669545454545
H    3.816104318181818    -2.3172971136363634    -0.23438304545454547
C    -2.823252246736432    4.734564589582956    -0.44806844961266656
C    -3.357488836273031    4.223037001437602    -1.6218636156377837
C    -2.5909678059778556    3.4082564706995977    -2.442281695285223
C    -1.2783298347419532    3.0897823275053957    -2.109294413621564
C    -0.7514539771559506    3.6152353138575526    -0.9315686028012068
C    -1.5115875454526302    4.432910119604858    -0.1083994763052619
H    -3.421663605692192    5.365389662368654    0.19640544490850484
H    -4.373528743923541    4.464812092122307    -1.9053568116174806
H    -3.0181719904096305    3.014226063504592    -3.357296926954916
H    0.2649434428567729    3.3744834817271068    -0.6496057529018081
H    -1.0738081629565337    4.834244463052748    0.7980407135056805
C    -0.4557587848239356    2.1925448354655592    -2.9945954971246245
H    -0.522008737899114    1.1554374690918605    -2.660352586956865
H    -0.803877235078807    2.227843139190249    -4.026610779533203
H    0.5961541326344693    2.4789558529634843    -2.98422894758169
N    0.9892702400423287    -4.502009175815592    -0.753909654643119
H    1.0975226001957368    -3.4820698028847126    -0.6823719434061016
H    1.605062693661922    -4.977629742201972    -1.39165631947001
C    -0.12826210335370025    -5.099966347289514    -0.3683003229674298
N    -0.4930403134764921    -6.265257619443223    -0.9223567674686219
H    -1.1919276696540382    -6.8467519530962475    -0.4946810801023922
H    -0.0754489688467595    -6.585157659285854    -1.7781038261894984
N    -0.9008086350193714    -4.563496668155164    0.5727012666143685
H    -1.7952962975561122    -5.000073628691646    0.7346858267255573
C    -0.46604010685584835    -3.565813026266058    1.5614591423407462
H    0.16855101619115695    -4.052827401623433    2.3063413647335502
H    0.12873064933239586    -2.8068632565168463    1.05905171573867
C    -1.6703348647425063    -2.9117518104059577    2.21866963810215
H    -2.247320411826122    -3.665987605451234    2.763302794154241
H    -2.3220749856309424    -2.5022912972641467    1.4432774634220285
C    -1.2408012741030352    -1.795854200236265    3.1628520357725365
H    -2.10926014204615    -1.2599788861930645    3.542820834768217
H    -0.685012476363151    -2.181656841569932    4.018129887649265
H    -0.6089992889592396    -1.0736154882131534    2.6417394024488448
N    -4.871325054095664    -0.40366425164228015    3.151108136550003
H    -4.526380677453499    -1.3367202081772958    2.9231684476036817
H    -4.682220005491269    0.20166498435297667    2.332589776717538
C    -6.347786032810711    -0.4076013825259194    3.463475228769745
H    -6.4941651954329105    -1.0813911634607876    4.307237984854041
H    -6.842950535490847    -0.823132199763116    2.588906279460883
C    -6.831197601085284    0.995601925624854    3.7668389535453795
H    -6.191768472501193    1.4478643199483106    4.533594701784247
H    -6.750807947416264    1.611970623359429    2.8674348076776086
C    -8.273545960902164    0.99710270062478    4.26814459724373
H    -8.329074828917879    0.408662209244691    5.187990620827439
H    -8.918755101634734    0.5010589687707088    3.5363940722673144
C    -8.777303187836486    2.4101633101773894    4.533863106582391
H    -8.932517888876653    2.9622720151167243    3.606256704449742
H    -9.722555483228424    2.3890467382552805    5.072966830954023
H    -8.063013874708673    2.967069730648291    5.142528861729984
H    -4.335186978135545    -0.048174275897345825    3.9440885761053983
O    -6.625113390067254    -3.7589224174388995    0.3990322761737076
C    -7.466687201907631    -3.964734057500037    1.3085619679436657
C    -7.065232055557264    -4.989546192930536    2.3876086939972567
H    -7.888143088824324    -5.16219107999311    3.079819834415865
H    -6.7670412926101475    -5.9287631090012125    1.9192927429427546
H    -6.201898342312742    -4.608512976175139    2.936128811623874
O    -8.586640768263367    -3.4191619904955295    1.4466443706786605
C    -0.44693269586614004    3.0535825946400084    2.204385873586276
O    -1.4166488295058113    2.9891221848354497    1.4060324346122928
O    0.7172543602532868    2.6363169853465966    2.027558399499862
C    -0.714225833324586    3.7451688286999127    3.556112976462893
H    -1.7754984321478224    3.9460297332024834    3.7005288995874044
H    -0.3265483856778186    3.1289574968061373    4.369457756353044
H    -0.16797729802003333    4.6909312528885    3.5762011215948846
C    -4.995924315775778    0.48580313119747    -4.377054743367191
H    -5.491340691907526    -0.409200092242369    -3.9860205484094493
C    -3.726411585885874    0.7586104040963164    -3.576131431442124
C    -5.977143199301696    1.6580386252370538    -4.345928088673858
H    -3.185646044245096    1.6077595734940637    -4.001905453988753
H    -3.9490702990913906    0.9968735009204928    -2.5339326767391728
H    -3.0542415194512724    -0.10248036693366674    -3.5790138702397716
H    -5.422106012669413    2.5797957797760556    -4.546239654869212
H    -6.70570182327592    1.5554546840844332    -5.153909852538696
C    -6.725955429799622    1.7811358969064008    -3.024313702112608
H    -6.04445998069694    1.7824142991814693    -2.1735293320835547
H    -7.31483712344732    2.698546888884433    -2.9784682195955465
H    -7.410776271417997    0.939110333654663    -2.898329639598629
H    -4.722384661870973    0.2628920825950149    -5.4121260438553005
C    9.307427260299047    1.6196649371194556    0.795682150375625
H    8.57453198688999    1.0113392786530553    0.2572601579483455
H    10.251452468690445    1.0714002149550037    0.805253267307025
C    8.816917055899216    1.9113853070008846    2.2104068155164045
H    9.58146133063538    2.5045613128865694    2.724699128733303
C    7.525899663787565    2.724841407498607    2.1788325602280625
C    8.620012201818108    0.6151640369877205    2.9915807733439923
H    6.7495257128654504    2.1786343007918925    1.6377279611911146
H    7.151974948106173    2.922069272243191    3.1849894657877273
H    7.664094146681981    3.686499830036142    1.681518260599493
H    9.526465326007312    0.005994932638091648    2.985272402733273
H    8.355902325576114    0.8172450957798114    4.031320049731619
H    7.814593007337242    0.020740080272548138    2.548926612450783
H    9.459930366236106    2.540770079992641    0.2306050171018046
O    -8.053006623138732    2.915414857941178    -1.0186112504548024
H    -7.76127663969269    2.145482370142777    -0.5157196575005724
C    -9.300718981946792    2.5988368636201398    -1.6048047474747635
H    -9.242927737923502    1.7067586107571202    -2.2383353599691724
H    -10.083106534734002    2.447815081140671    -0.8525383215284019
H    -9.591467171009429    3.4410260171728946    -2.2306176229483583
C    -6.994373722257473    -2.5191921642887256    -3.5937232463782682
C    -8.37184505994573    -2.476730749046014    -3.344622206216911
C    -8.910973837441631    -3.2969834746319884    -2.3339956760445886
C    -8.118467764206757    -4.155363751715846    -1.5735000971013178
C    -6.765374608251059    -4.178585971783629    -1.8428578119198242
C    -6.205416624011167    -3.3672456693821795    -2.8446132645736215
H    -6.554845161815094    -1.8904613027804231    -4.358902963224503
H    -8.544098673887293    -4.777273021652271    -0.796309283136288
H    -6.121177528088399    -4.830823390421954    -1.2670248619321225
H    -5.13631686569991    -3.3986015255956894    -3.0160606862183617
C    -9.458045311591022    -1.713723453842197    -3.905159915563329
C    -10.57521537314892    -2.097384825608114    -3.230883166321958
H    -11.592033846049752    -1.7600081202478195    -3.351760566178255
N    -10.259204039629685    -3.0432578712161713    -2.2759824885751434
H    -10.916910487252787    -3.4977975000290193    -1.670778720641096
C    -9.361056164220514    -0.6893702967538683    -4.989623489334983
H    -8.950460338057095    0.2501023021306926    -4.613136630524922
H    -8.71460838837216    -1.028269476204355    -5.801520769600676
H    -10.34087230590113    -0.4732601319961192    -5.415154867606811
C    4.1556876074106865    -3.7835312443700593    3.4163672335472395
C    5.129036607963831    -3.341492582194848    4.26930401274674
C    4.6913851560934425    -2.726920153527842    5.441298589092671
C    3.3328811321184935    -2.574126442457316    5.711450982102379
C    2.402076154768857    -3.0254332080745674    4.778497795634135
C    2.8079310114890688    -3.6435089022221585    3.5938949239622846
H    6.18446173840121    -3.450961011750294    4.058145157466032
H    5.42131829476264    -2.362659726054509    6.156049874780157
H    1.342565989185355    -2.8969655848398768    4.973280545677201
H    2.085420421739104    -3.9969120657167196    2.869008581266445
C    2.8870783379774427    -1.9545852933550074    7.0090973960920335
H    2.872427101596511    -2.696893842853912    7.809725502798206
H    3.558970636106942    -1.1533824351037396    7.3172998386270685
H    1.8823976969597551    -1.5433228123003753    6.925582636010076
H    2.7814257037102452    -3.169871941649232    -3.4138808439853805
O    3.005672565562057    -2.2807868037637045    -3.125331020466319
H    2.422274958667677    -2.1202565229211703    -2.3680979606881967
