160
placed: isoleucine leucine serine tryptophan tyrosine phenylalanine lysine aspartic glutamic
C    -5.945350681818182    0.23278688636363637    0.16006995454545458
C    -5.172542681818181    1.3434288863636366    0.4925409545454545
C    -3.7998686818181815    1.2793748863636365    0.39736195454545453
C    -3.1473386818181814    0.11847288636363638    -0.02927704545454544
C    -3.9371006818181815    -0.9809231136363636    -0.35633604545454545
C    -5.3173046818181815    -0.9356211136363636    -0.26665404545454546
H    -5.670811681818182    2.2442728863636363    0.8226839545454546
H    -3.2111576818181815    2.1500078863636363    0.6591099545454546
H    -3.4746566818181814    -1.9003121136363634    -0.6895730454545455
H    -5.890931681818182    -1.8116101136363636    -0.5298930454545454
O    -7.280922681818182    0.38014688636363636    0.2814289545454545
C    -8.110493681818182    -0.7119621136363636    -0.04155404545454544
H    -7.905391681818181    -1.5729501136363635    0.6002269545454546
H    -9.130393681818182    -0.3767111136363636    0.12538195454545453
H    -7.995182681818181    -1.0053401136363636    -1.0883910454545456
C    -1.6885196818181818    0.1151798863636364    -0.11031904545454545
H    -1.2043856818181817    1.0389918863636365    0.18673795454545455
C    -0.9047716818181817    -0.8889731136363637    -0.5051070454545454
H    -1.2957356818181818    -1.8473391136363635    -0.8184200454545454
C    0.5661873181818183    -0.8176351136363637    -0.5564920454545454
O    1.2535253181818184    -1.7482521136363636    -0.9030040454545454
O    1.0536433181818183    0.3733468863636364    -0.18911604545454547
C    2.4877833181818185    0.5414958863636363    -0.18817904545454545
H    2.8849863181818183    -0.05701711363636361    -1.0092380454545455
C    3.0103743181818183    0.017014886363636388    1.1451719545454544
H    2.6290143181818184    -0.9973781136363636    1.2700839545454545
H    2.5647793181818184    0.6213728863636364    1.9394939545454546
C    2.7346373181818184    2.0235678863636366    -0.45721604545454547
H    1.9231723181818183    2.3720828863636365    -1.0974950454545456
H    2.6544743181818182    2.5825578863636367    0.47880195454545454
C    4.060457318181818    2.3306668863636366    -1.1452480454545455
H    4.128206318181818    3.3932688863636367    -1.3785320454545456
H    4.920967318181819    2.0744828863636364    -0.5298220454545455
H    4.147235318181818    1.7791168863636364    -2.0829780454545452
C    4.529157318181818    0.002277886363636388    1.3127209545454546
H    4.910828318181818    1.0251098863636365    1.3471389545454544
H    4.745812318181819    -0.4278371136363636    2.2944199545454547
C    5.292977318181818    -0.7928611136363636    0.25283095454545457
H    6.356103318181819    -0.7603821136363637    0.5026069545454546
H    5.199829318181818    -0.30302511363636364    -0.7195700454545454
C    4.841835318181818    -2.2437721136363633    0.12912195454545455
H    5.478644318181819    -2.7908341136363637    -0.5665030454545454
H    4.892125318181819    -2.7509921136363635    1.0953669545454545
H    3.816104318181818    -2.3172971136363634    -0.23438304545454547
C    -0.6913789797679439    -2.0302142031433683    3.0624492941409347
H    -0.7729662396667576    -2.0350238479982194    1.9713863399028404
C    -0.1582718667651659    -0.6773636789057944    3.52024475266687
C    0.1695007652379526    -3.2144129024549932    3.498586287263226
H    -0.16518695348566723    -0.5994315981437953    4.610116235719694
H    0.8650857925099252    -0.5133222675515335    3.1824999193221752
H    -0.7648418304805461    0.1389522377425821    3.124376768558283
H    0.2700387293227728    -3.2106820017724655    4.589733002533923
H    -0.35012318389450653    -4.141778149761757    3.239679493386548
C    1.5549406503528413    -3.2194598619848995    2.859340595467237
H    2.1404544243940387    -2.349851003006348    3.165177449823955
H    2.119836556797283    -4.10672912893256    3.1496178188417923
H    1.4858718230807553    -3.206357699556637    1.7678023844133188
H    -1.7070030603525872    -2.160984536326773    3.4458500523860884
C    -4.7732757584083085    -2.9052787098471    3.260437725802202
H    -3.8612907974834725    -2.9686656288395437    3.862418430535277
H    -4.474562863351538    -2.75444767180736    2.2205822794116625
C    -5.641702966029735    -1.7503091885210131    3.7471084698598496
H    -6.5093568916067    -1.6664713721615398    3.081036636401766
C    -6.152890015600798    -2.005108211960603    5.1621661226525335
C    -4.865367414488706    -0.4407231506453725    3.675428623808125
H    -5.32013002410613    -2.2341351153216165    5.833183430256966
H    -6.66830397406351    -1.1293780320724913    5.560814227709833
H    -6.846952697553766    -2.8470350948504777    5.19024850014001
H    -4.42234599341176    -0.29773800552885155    2.6892123666433836
H    -5.512917306639943    0.41300098902085297    3.8808494279247845
H    -4.057398798929524    -0.4331161955025268    4.4130706552157815
H    -5.293388347566769    -3.863025535355612    3.3332880149318203
O    -0.33100792628676795    2.975750332002553    1.0276256443056302
H    0.2605090682152773    2.5663402983066455    0.3854575035615647
C    -0.031191974569959494    2.423647196892657    2.299969684756988
H    0.9737875791574475    2.6996034573605066    2.6350118166695182
H    -0.7532287090462898    2.829819802248377    3.0054356530421984
H    -0.11390933506358399    1.3325909121891801    2.300952932219438
C    -6.994373722257473    -2.5191921642887256    -3.5937232463782682
C    -8.37184505994573    -2.476730749046014    -3.344622206216911
C    -8.910973837441631    -3.2969834746319884    -2.3339956760445886
C    -8.118467764206757    -4.155363751715846    -1.5735000971013178
C    -6.765374608251059    -4.178585971783629    -1.8428578119198242
C    -6.205416624011167    -3.3672456693821795    -2.8446132645736215
H    -6.554845161815094    -1.8904613027804231    -4.358902963224503
H    -8.544098673887293    -4.777273021652271    -0.796309283136288
H    -6.121177528088399    -4.830823390421954    -1.2670248619321225
H    -5.13631686569991    -3.3986015255956894    -3.0160606862183617
C    -9.458045311591022    -1.713723453842197    -3.905159915563329
C    -10.57521537314892    -2.097384825608114    -3.230883166321958
H    -11.592033846049752    -1.7600081202478195    -3.351760566178255
N    -10.259204039629685    -3.0432578712161713    -2.2759824885751434
H    -10.916910487252787    -3.4977975000290193    -1.670778720641096
C    -9.361056164220514    -0.6893702967538683    -4.989623489334983
H    -8.950460338057095    0.2501023021306926    -4.613136630524922
H    -8.71460838837216    -1.028269476204355    -5.801520769600676
H    -10.34087230590113    -0.4732601319961192    -5.415154867606811
C    8.664808506866335    0.394126271654433    2.23715078881773
C    8.663517164181505    1.13234521223521    1.0835901199554863
C    7.80640353590442    2.232121199130061    1.0567641018527545
C    7.0077947493890616    2.551762937853615    2.1557079055874544
C    7.060676822925723    1.7424405553595148    3.2864920028742555
C    7.90450088031416    0.6291206919441623    3.347157147908473
H    9.280802288398665    0.8836619866756177    0.22915594142670528
H    7.762202955176705    2.8459087346623018    0.16298246364932992
H    6.429265928286924    1.972765272074433    4.13761208724669
H    7.944030634911392    -0.004977507397472848    4.224174813090993
C    6.0978431542162355    3.7528303379283683    2.11096457319667
H    6.673273922897418    4.678934868647107    2.0517836252379964
H    5.439885071404987    3.7193251086199592    1.2396989901788444
H    5.473724685320046    3.8036676231675672    3.0028349678653457
H    8.626003362669005    -2.062707487458541    2.741083328934659
O    8.487493175905515    -2.8284196019641907    3.310786494248526
H    7.807706182966991    -3.3437564816596383    2.864770067130785
C    -4.458922012916631    5.666873095343819    -0.8229022921115977
C    -3.304689735658608    5.444802811638377    -0.08293066824330897
C    -3.3878851341650313    4.973067099551494    1.2186677780283826
C    -4.62326370210142    4.698441664508187    1.8014442952049103
C    -5.770546815695458    4.924750720046271    1.0496571978668232
C    -5.693968120087195    5.4095634688363905    -0.2491358707979065
H    -4.395595810777574    6.035493186309744    -1.838980410944504
H    -2.335722201717525    5.636886721918086    -0.5247836826546478
H    -2.482996665462456    4.813692271402694    1.795060088812827
H    -6.737358598212782    4.710398984972439    1.4906182684041396
H    -6.602099155644615    5.572699563272458    -0.8155888147718505
C    -4.715047923385747    4.120021053333554    3.1880275268051252
H    -4.344812468441299    3.0914490770518523    3.20003090681658
H    -4.121655297814248    4.689714524527626    3.904711194483654
H    -5.7473595628004155    4.105466698917285    3.5369970019500934
N    -2.98965419167988    1.070835641766168    -2.9644319150640768
H    -2.0507009107564356    1.4145825389560407    -2.7551088947160762
H    -3.250977373615515    0.4513295586510292    -2.1796602326433208
C    -4.007735367129729    2.1746486004047085    -3.0846689048127045
H    -3.678476357996471    2.841249719042652    -3.880222480394362
H    -3.9873657882047246    2.706555058243069    -2.1358202326012656
C    -5.372544515979213    1.578326089113671    -3.3549836342431103
H    -5.3383776691599625    0.9835380103607897    -4.27423678945064
H    -5.630172450309214    0.899288227069773    -2.5363939792798944
C    -6.448128471193208    2.6526361516017913    -3.4888090231731343
H    -6.202950774486346    3.303663027382036    -4.331204259282912
H    -6.451226053290126    3.282789344144308    -2.594599284919839
C    -7.826109495357071    2.0374273920007635    -3.692014047267572
H    -8.122380108484707    1.462723865186741    -2.812279073783573
H    -8.581118135851536    2.804815319697454    -3.8587829403778358
H    -7.834053787209995    1.369105101537057    -4.555345894443767
H    -2.941970697754408    0.5129937680876749    -3.8184091698786484
O    -3.1875851955711916    -5.630314636706043    -0.4469771481447103
C    -2.4638435181521596    -4.618411855715582    -0.47199484049445367
C    -1.2524350819062509    -4.5825715974655195    0.4827517018339398
H    -1.3203134997711112    -3.6991380742566213    1.1233098597711821
H    -1.2076503354857497    -5.480486142149483    1.0980137597817186
H    -0.3317994872526343    -4.481702955215388    -0.0966028135550027
O    -2.597121194101217    -3.5917671107248554    -1.196169614128919
C    -7.180395372337999    -4.482104290598019    0.2535397102897242
O    -7.7053298056510355    -5.592065167562723    0.054543043920670956
O    -6.933801710792026    -3.574931848988409    -0.5880198811383803
C    -6.801997127483633    -4.139533118283258    1.7148462350191604
H    -5.79802756240344    -3.7123071884088183    1.7593903074217314
H    -7.495929176181148    -3.3832112449124123    2.095854221631611
H    -6.865589345926988    -5.018994048575399    2.3548756146799508
