146
placed: aspartic glutamic isoleucine leucine serine tryptophan phenylalanine lysine
C    -5.945350681818182    0.23278688636363637    0.16006995454545458
C    -5.172542681818181    1.3434288863636366    0.4925409545454545
C    -3.7998686818181815    1.2793748863636365    0.39736195454545453
C    -3.1473386818181814    0.11847288636363638    -0.02927704545454544
C    -3.9371006818181815    -0.9809231136363636    -0.35633604545454545
C    -5.3173046818181815    -0.9356211136363636    -0.26665404545454546
H    -5.670811681818182    2.2442728863636363    0.8226839545454546
H    -3.2111576818181815    2.1500078863636363    0.6591099545454546
H    -3.4746566818181814    -1.9003121136363634    -0.6895730454545455
H    -5.890931681818182    -1.8116101136363636    -0.5298930454545454
O    -7.280922681818182    0.38014688636363636    0.2814289545454545
C    -8.110493681818182    -0.7119621136363636    -0.04155404545454544
H    -7.905391681818181    -1.5729501136363635    0.6002269545454546
H    -9.130393681818182    -0.3767111136363636    0.12538195454545453
H    -7.995182681818181    -1.0053401136363636    -1.0883910454545456
C    -1.6885196818181818    0.1151798863636364    -0.11031904545454545
H    -1.2043856818181817    1.0389918863636365    0.18673795454545455
C    -0.9047716818181817    -0.8889731136363637    -0.5051070454545454
H    -1.2957356818181818    -1.8473391136363635    -0.8184200454545454
C    0.5661873181818183    -0.8176351136363637    -0.5564920454545454
O    1.2535253181818184    -1.7482521136363636    -0.9030040454545454
O    1.0536433181818183    0.3733468863636364    -0.18911604545454547
C    2.4877833181818185    0.5414958863636363    -0.18817904545454545
H    2.8849863181818183    -0.05701711363636361    -1.0092380454545455
C    3.0103743181818183    0.017014886363636388    1.1451719545454544
H    2.6290143181818184    -0.9973781136363636    1.2700839545454545
H    2.5647793181818184    0.6213728863636364    1.9394939545454546
C    2.7346373181818184    2.0235678863636366    -0.45721604545454547
H    1.9231723181818183    2.3720828863636365    -1.0974950454545456
H    2.6544743181818182    2.5825578863636367    0.47880195454545454
C    4.060457318181818    2.3306668863636366    -1.1452480454545455
H    4.128206318181818    3.3932688863636367    -1.3785320454545456
H    4.920967318181819    2.0744828863636364    -0.5298220454545455
H    4.147235318181818    1.7791168863636364    -2.0829780454545452
C    4.529157318181818    0.002277886363636388    1.3127209545454546
H    4.910828318181818    1.0251098863636365    1.3471389545454544
H    4.745812318181819    -0.4278371136363636    2.2944199545454547
C    5.292977318181818    -0.7928611136363636    0.25283095454545457
H    6.356103318181819    -0.7603821136363637    0.5026069545454546
H    5.199829318181818    -0.30302511363636364    -0.7195700454545454
C    4.841835318181818    -2.2437721136363633    0.12912195454545455
H    5.478644318181819    -2.7908341136363637    -0.5665030454545454
H    4.892125318181819    -2.7509921136363635    1.0953669545454545
H    3.816104318181818    -2.3172971136363634    -0.23438304545454547
O    -6.625113390067254    -3.7589224174388995    0.3990322761737076
C    -7.466687201907631    -3.964734057500037    1.3085619679436657
C    -7.065232055557264    -4.989546192930536    2.3876086939972567
H    -7.888143088824324    -5.16219107999311    3.079819834415865
H    -6.7670412926101475    -5.9287631090012125    1.9192927429427546
H    -6.201898342312742    -4.608512976175139    2.936128811623874
O    -8.586640768263367    -3.4191619904955295    1.4466443706786605
C    -1.7033420564989337    3.4416696117860126    -1.9130313567855086
C    -0.6536952406202389    4.279026332178266    -1.1964687840943367
C    -0.3845878695472518    3.876822292091394    0.2766496889869557
O    -1.2373559139978136    3.121469047912594    0.8119845960715946
O    0.644020982705585    4.358948069845234    0.790117578197466
H    -1.4029669600120442    2.3923738407217434    -1.961624235300875
H    -2.6522294457575644    3.474105916124968    -1.3769186298406975
H    -1.8685824244982674    3.794234822487156    -2.9364638451838547
H    0.3002123422847446    4.258805743038818    -1.7307161055230122
H    -0.9606716878083985    5.329741011976112    -1.1756418497681551
C    -0.6913789797679439    -2.0302142031433683    3.0624492941409347
H    -0.7729662396667576    -2.0350238479982194    1.9713863399028404
C    -0.1582718667651659    -0.6773636789057944    3.52024475266687
C    0.1695007652379526    -3.2144129024549932    3.498586287263226
H    -0.16518695348566723    -0.5994315981437953    4.610116235719694
H    0.8650857925099252    -0.5133222675515335    3.1824999193221752
H    -0.7648418304805461    0.1389522377425821    3.124376768558283
H    0.2700387293227728    -3.2106820017724655    4.589733002533923
H    -0.35012318389450653    -4.141778149761757    3.239679493386548
C    1.5549406503528413    -3.2194598619848995    2.859340595467237
H    2.1404544243940387    -2.349851003006348    3.165177449823955
H    2.119836556797283    -4.10672912893256    3.1496178188417923
H    1.4858718230807553    -3.206357699556637    1.7678023844133188
H    -1.7070030603525872    -2.160984536326773    3.4458500523860884
C    -1.1550038927425248    2.182676984669659    3.1859599117255493
H    -1.9289493642145197    1.4601415667232673    2.9131039282988405
H    -0.4689136508236418    1.6910150399848536    3.87726320981173
C    -1.7881454634137446    3.419834963789871    3.8137240560553303
H    -0.9908173689035479    4.135338090681493    4.044716401158226
C    -2.7554955850777145    4.084789722895593    2.839212950440164
C    -2.5025217634394314    3.0515107502280783    5.111933728262268
H    -3.6134369255034056    3.4341588900248934    2.6467527255897583
H    -3.138817764464523    5.0251435982371095    3.2369660744967
H    -2.2715156413806676    4.2971720485111335    1.8838636930281636
H    -1.8103107852171714    2.6459831380737917    5.852928673218621
H    -3.0032838872489527    3.9159584745526708    5.5508980744578045
H    -3.2676858014662002    2.2934181435065524    4.921251738031579
H    -0.5944373028585803    2.42502991903427    2.280710121444474
O    -7.900135667618918    1.7784729039592027    2.7930617553053936
H    -7.805432272568267    1.4839071026444497    1.879391664058572
C    -7.553193317954909    0.6881846930605845    3.6264527827336455
H    -7.548885754773642    1.0449217602338174    4.655058285745772
H    -8.277205914397967    -0.1307348918169545    3.556691981501678
H    -6.560266832015474    0.29256852343122663    3.3907160068099613
C    -6.994373722257473    -2.5191921642887256    -3.5937232463782682
C    -8.37184505994573    -2.476730749046014    -3.344622206216911
C    -8.910973837441631    -3.2969834746319884    -2.3339956760445886
C    -8.118467764206757    -4.155363751715846    -1.5735000971013178
C    -6.765374608251059    -4.178585971783629    -1.8428578119198242
C    -6.205416624011167    -3.3672456693821795    -2.8446132645736215
H    -6.554845161815094    -1.8904613027804231    -4.358902963224503
H    -8.544098673887293    -4.777273021652271    -0.796309283136288
H    -6.121177528088399    -4.830823390421954    -1.2670248619321225
H    -5.13631686569991    -3.3986015255956894    -3.0160606862183617
C    -9.458045311591022    -1.713723453842197    -3.905159915563329
C    -10.57521537314892    -2.097384825608114    -3.230883166321958
H    -11.592033846049752    -1.7600081202478195    -3.351760566178255
N    -10.259204039629685    -3.0432578712161713    -2.2759824885751434
H    -10.916910487252787    -3.4977975000290193    -1.670778720641096
C    -9.361056164220514    -0.6893702967538683    -4.989623489334983
H    -8.950460338057095    0.2501023021306926    -4.613136630524922
H    -8.71460838837216    -1.028269476204355    -5.801520769600676
H    -10.34087230590113    -0.4732601319961192    -5.415154867606811
C    -3.2263220021471786    -5.10874164840867    2.659228780614812
C    -3.4014545127368483    -6.462889093721327    2.4178019730945217
C    -3.627924410564529    -6.921048495415999    1.127157428314813
C    -3.6812909727710603    -6.03505987996987    0.05713926156323052
C    -3.5133273820748565    -4.677764095526803    0.3166880693165997
C    -3.285167557703025    -4.2105369815093265    1.6019208519793096
H    -3.0461236090461687    -4.755082122186146    3.66546827278707
H    -3.363331328174111    -7.164728050502343    3.240920280122987
H    -3.770700906903297    -7.980582162159927    0.9502747280988395
H    -3.5753878464310027    -3.9806313861099    -0.5103694848390326
H    -3.1608731576113764    -3.147567389310722    1.7773594931184669
C    -3.895279148860364    -6.522493394732117    -1.350496363277493
H    -2.9411849725916235    -6.598909980487602    -1.8764385440509408
H    -4.360995716768151    -7.507466824014211    -1.3591863012895224
H    -4.530291997823301    -5.836735875922792    -1.9135113002593345
N    -2.98965419167988    1.070835641766168    -2.9644319150640768
H    -2.0507009107564356    1.4145825389560407    -2.7551088947160762
H    -3.250977373615515    0.4513295586510292    -2.1796602326433208
C    -4.007735367129729    2.1746486004047085    -3.0846689048127045
H    -3.678476357996471    2.841249719042652    -3.880222480394362
H    -3.9873657882047246    2.706555058243069    -2.1358202326012656
C    -5.372544515979213    1.578326089113671    -3.3549836342431103
H    -5.3383776691599625    0.9835380103607897    -4.27423678945064
H    -5.630172450309214    0.899288227069773    -2.5363939792798944
C    -6.448128471193208    2.6526361516017913    -3.4888090231731343
H    -6.202950774486346    3.303663027382036    -4.331204259282912
H    -6.451226053290126    3.282789344144308    -2.594599284919839
C    -7.826109495357071    2.0374273920007635    -3.692014047267572
H    -8.122380108484707    1.462723865186741    -2.812279073783573
H    -8.581118135851536    2.804815319697454    -3.8587829403778358
H    -7.834053787209995    1.369105101537057    -4.555345894443767
H    -2.941970697754408    0.5129937680876749    -3.8184091698786484
