162
placed: isoleucine leucine serine tryptophan tyrosine phenylalanine lysine aspartic glutamic
C    -5.945350681818182    0.23278688636363637    0.16006995454545458
C    -5.172542681818181    1.3434288863636366    0.4925409545454545
C    -3.7998686818181815    1.2793748863636365    0.39736195454545453
C    -3.1473386818181814    0.11847288636363638    -0.02927704545454544
C    -3.9371006818181815    -0.9809231136363636    -0.35633604545454545
C    -5.3173046818181815    -0.9356211136363636    -0.26665404545454546
H    -5.670811681818182    2.2442728863636363    0.8226839545454546
H    -3.2111576818181815    2.1500078863636363    0.6591099545454546
H    -3.4746566818181814    -1.9003121136363634    -0.6895730454545455
H    -5.890931681818182    -1.8116101136363636    -0.5298930454545454
O    -7.280922681818182    0.38014688636363636    0.2814289545454545
C    -8.110493681818182    -0.7119621136363636    -0.04155404545454544
H    -7.905391681818181    -1.5729501136363635    0.6002269545454546
H    -9.130393681818182    -0.3767111136363636    0.12538195454545453
H    -7.995182681818181    -1.0053401136363636    -1.0883910454545456
C    -1.6885196818181818    0.1151798863636364    -0.11031904545454545
H    -1.2043856818181817    1.0389918863636365    0.18673795454545455
C    -0.9047716818181817    -0.8889731136363637    -0.5051070454545454
H    -1.2957356818181818    -1.8473391136363635    -0.8184200454545454
C    0.5661873181818183    -0.8176351136363637    -0.5564920454545454
O    1.2535253181818184    -1.7482521136363636    -0.9030040454545454
O    1.0536433181818183    0.3733468863636364    -0.18911604545454547
C    2.4877833181818185    0.5414958863636363    -0.18817904545454545
H    2.8849863181818183    -0.05701711363636361    -1.0092380454545455
C    3.0103743181818183    0.017014886363636388    1.1451719545454544
H    2.6290143181818184    -0.9973781136363636    1.2700839545454545
H    2.5647793181818184    0.6213728863636364    1.9394939545454546
C    2.7346373181818184    2.0235678863636366    -0.45721604545454547
H    1.9231723181818183    2.3720828863636365    -1.0974950454545456
H    2.6544743181818182    2.5825578863636367    0.47880195454545454
C    4.060457318181818    2.3306668863636366    -1.1452480454545455
H    4.128206318181818    3.3932688863636367    -1.3785320454545456
H    4.920967318181819    2.0744828863636364    -0.5298220454545455
H    4.147235318181818    1.7791168863636364    -2.0829780454545452
C    4.529157318181818    0.002277886363636388    1.3127209545454546
H    4.910828318181818    1.0251098863636365    1.3471389545454544
H    4.745812318181819    -0.4278371136363636    2.2944199545454547
C    5.292977318181818    -0.7928611136363636    0.25283095454545457
H    6.356103318181819    -0.7603821136363637    0.5026069545454546
H    5.199829318181818    -0.30302511363636364    -0.7195700454545454
C    4.841835318181818    -2.2437721136363633    0.12912195454545455
H    5.478644318181819    -2.7908341136363637    -0.5665030454545454
H    4.892125318181819    -2.7509921136363635    1.0953669545454545
H    3.816104318181818    -2.3172971136363634    -0.23438304545454547
C    -0.6913789797679439    -2.0302142031433683    3.0624492941409347
H    -0.7729662396667576    -2.0350238479982194    1.9713863399028404
C    -0.1582718667651659    -0.6773636789057944    3.52024475266687
C    0.1695007652379526    -3.2144129024549932    3.498586287263226
H    -0.16518695348566723    -0.5994315981437953    4.610116235719694
H    0.8650857925099252    -0.5133222675515335    3.1824999193221752
H    -0.7648418304805461    0.1389522377425821    3.124376768558283
H    0.2700387293227728    -3.2106820017724655    4.589733002533923
H    -0.35012318389450653    -4.141778149761757    3.239679493386548
C    1.5549406503528413    -3.2194598619848995    2.859340595467237
H    2.1404544243940387    -2.349851003006348    3.165177449823955
H    2.119836556797283    -4.10672912893256    3.1496178188417923
H    1.4858718230807553    -3.206357699556637    1.7678023844133188
H    -1.7070030603525872    -2.160984536326773    3.4458500523860884
C    -4.7732757584083085    -2.9052787098471    3.260437725802202
H    -3.8612907974834725    -2.9686656288395437    3.862418430535277
H    -4.474562863351538    -2.75444767180736    2.2205822794116625
C    -5.641702966029735    -1.7503091885210131    3.7471084698598496
H    -6.5093568916067    -1.6664713721615398    3.081036636401766
C    -6.152890015600798    -2.005108211960603    5.1621661226525335
C    -4.865367414488706    -0.4407231506453725    3.675428623808125
H    -5.32013002410613    -2.2341351153216165    5.833183430256966
H    -6.66830397406351    -1.1293780320724913    5.560814227709833
H    -6.846952697553766    -2.8470350948504777    5.19024850014001
H    -4.42234599341176    -0.29773800552885155    2.6892123666433836
H    -5.512917306639943    0.41300098902085297    3.8808494279247845
H    -4.057398798929524    -0.4331161955025268    4.4130706552157815
H    -5.293388347566769    -3.863025535355612    3.3332880149318203
O    -0.33100792628676795    2.975750332002553    1.0276256443056302
H    0.2605090682152773    2.5663402983066455    0.3854575035615647
C    -0.031191974569959494    2.423647196892657    2.299969684756988
H    0.9737875791574475    2.6996034573605066    2.6350118166695182
H    -0.7532287090462898    2.829819802248377    3.0054356530421984
H    -0.11390933506358399    1.3325909121891801    2.300952932219438
C    -6.994373722257473    -2.5191921642887256    -3.5937232463782682
C    -8.37184505994573    -2.476730749046014    -3.344622206216911
C    -8.910973837441631    -3.2969834746319884    -2.3339956760445886
C    -8.118467764206757    -4.155363751715846    -1.5735000971013178
C    -6.765374608251059    -4.178585971783629    -1.8428578119198242
C    -6.205416624011167    -3.3672456693821795    -2.8446132645736215
H    -6.554845161815094    -1.8904613027804231    -4.358902963224503
H    -8.544098673887293    -4.777273021652271    -0.796309283136288
H    -6.121177528088399    -4.830823390421954    -1.2670248619321225
H    -5.13631686569991    -3.3986015255956894    -3.0160606862183617
C    -9.458045311591022    -1.713723453842197    -3.905159915563329
C    -10.57521537314892    -2.097384825608114    -3.230883166321958
H    -11.592033846049752    -1.7600081202478195    -3.351760566178255
N    -10.259204039629685    -3.0432578712161713    -2.2759824885751434
H    -10.916910487252787    -3.4977975000290193    -1.670778720641096
C    -9.361056164220514    -0.6893702967538683    -4.989623489334983
H    -8.950460338057095    0.2501023021306926    -4.613136630524922
H    -8.71460838837216    -1.028269476204355    -5.801520769600676
H    -10.34087230590113    -0.4732601319961192    -5.415154867606811
C    -1.5544311115722562    4.4803661343178245    -1.031520378089515
C    -1.7926098489467956    3.3487150468455593    -1.9959279805564536
C    -3.0644762155023635    3.0318880149457224    -2.4615398388165044
C    -3.2763348114886957    1.963977943345591    -3.319594620666383
C    -2.202907671000422    1.190628849296877    -3.7325425011805
O    -2.452101874946039    0.14520795922787416    -4.576579212806806
C    -0.9230403937664757    1.494508930702599    -3.290316413483943
C    -0.7310139863774026    2.5651765959119857    -2.434615611129688
H    -2.4430370200750198    5.1007617812814185    -0.9194859902338555
H    -0.7371031621140891    5.122080247466398    -1.3659538718613595
H    -1.2863812889672308    4.102281140492442    -0.04114287084980621
H    -3.917179608824994    3.6190448736543477    -2.13839094622139
H    -4.267978123284179    1.7219010246335484    -3.6750474053199382
H    -1.6255392910221327    -0.31742524652377446    -4.751629178517445
H    -0.081598221159498    0.8891175283002336    -3.6112105082227957
H    0.26933936522822727    2.7898175304949477    -2.089154501283218
C    -3.2263220021471786    -5.10874164840867    2.659228780614812
C    -3.4014545127368483    -6.462889093721327    2.4178019730945217
C    -3.627924410564529    -6.921048495415999    1.127157428314813
C    -3.6812909727710603    -6.03505987996987    0.05713926156323052
C    -3.5133273820748565    -4.677764095526803    0.3166880693165997
C    -3.285167557703025    -4.2105369815093265    1.6019208519793096
H    -3.0461236090461687    -4.755082122186146    3.66546827278707
H    -3.363331328174111    -7.164728050502343    3.240920280122987
H    -3.770700906903297    -7.980582162159927    0.9502747280988395
H    -3.5753878464310027    -3.9806313861099    -0.5103694848390326
H    -3.1608731576113764    -3.147567389310722    1.7773594931184669
C    -3.895279148860364    -6.522493394732117    -1.350496363277493
H    -2.9411849725916235    -6.598909980487602    -1.8764385440509408
H    -4.360995716768151    -7.507466824014211    -1.3591863012895224
H    -4.530291997823301    -5.836735875922792    -1.9135113002593345
N    -5.218660249607499    3.9834474963341133    2.7764373846928962
H    -4.478085591179518    4.489323419711033    3.2638859418583976
H    -5.121457729742164    2.9867117909872034    2.9887797588396894
C    -6.599402168785012    4.475537532248661    3.165751926487759
H    -6.685958037975277    5.495199278140414    2.793325638351173
H    -6.615262148074099    4.500441125732745    4.253588346855001
C    -7.673244553611355    3.5626403756362928    2.6126143810203653
H    -7.6155818489083895    3.515459271370228    1.5206872125476365
H    -7.5132849712285426    2.5431486849363214    2.978826616176221
C    -9.055932544677898    4.047013815402933    3.0453261890914907
H    -9.25416261098498    5.021377081995602    2.592232294537716
H    -9.054930636043942    4.204030662601559    4.12779901376594
C    -10.139236182953763    3.048590053446416    2.6649583965542147
H    -9.96472426521267    2.090391457415141    3.1555681393245156
H    -11.122455598022977    3.403412397839972    2.964196047624119
H    -10.156688696609418    2.8772876357155366    1.5882645469066956
H    -5.062761183541777    4.085001876610965    1.772499092276033
O    -7.9939207523291085    -4.414214930791253    3.1167180884573455
C    -7.855945529337699    -3.231128890228879    2.7539923823770303
C    -8.877767731915482    -2.225919313739084    3.3440689242916797
H    -8.64740355118266    -2.0616612986828615    4.400504007810622
H    -8.844689001469556    -1.263001410697425    2.8318268972843197
H    -9.883296720403967    -2.647984479455462    3.2912671657942916
O    -6.9886569770941405    -2.7491450478191153    1.977579282585732
C    -6.225884879526323    2.162307528109943    -2.8342294588424095
C    -7.384276105973484    2.248464954120369    -3.818342277266205
C    -7.00491052067343    2.0388637126584284    -5.313780953841815
O    -5.856920953268391    1.5957634507771903    -5.53888137725121
O    -7.9101620706457485    2.3270596756588082    -6.128632254738826
H    -5.6972707864066265    1.212200091927253    -2.930893529520732
H    -5.49355353587621    2.9450289112348242    -3.0391275425099598
H    -6.565228353769579    2.281667468034746    -1.7996571733969262
H    -8.150537930997865    1.5022518209729898    -3.579660033477044
H    -7.884428877057636    3.2166266961485657    -3.737849541356755
