167
placed: leucine serine tryptophan tyrosine phenylalanine arginine lysine aspartic glutamic
C    -5.945350681818182    0.23278688636363637    0.16006995454545458
C    -5.172542681818181    1.3434288863636366    0.4925409545454545
C    -3.7998686818181815    1.2793748863636365    0.39736195454545453
C    -3.1473386818181814    0.11847288636363638    -0.02927704545454544
C    -3.9371006818181815    -0.9809231136363636    -0.35633604545454545
C    -5.3173046818181815    -0.9356211136363636    -0.26665404545454546
H    -5.670811681818182    2.2442728863636363    0.8226839545454546
H    -3.2111576818181815    2.1500078863636363    0.6591099545454546
H    -3.4746566818181814    -1.9003121136363634    -0.6895730454545455
H    -5.890931681818182    -1.8116101136363636    -0.5298930454545454
O    -7.280922681818182    0.38014688636363636    0.2814289545454545
C    -8.110493681818182    -0.7119621136363636    -0.04155404545454544
H    -7.905391681818181    -1.5729501136363635    0.6002269545454546
H    -9.130393681818182    -0.3767111136363636    0.12538195454545453
H    -7.995182681818181    -1.0053401136363636    -1.0883910454545456
C    -1.6885196818181818    0.1151798863636364    -0.11031904545454545
H    -1.2043856818181817    1.0389918863636365    0.18673795454545455
C    -0.9047716818181817    -0.8889731136363637    -0.5051070454545454
H    -1.2957356818181818    -1.8473391136363635    -0.8184200454545454
C    0.5661873181818183    -0.8176351136363637    -0.5564920454545454
O    1.2535253181818184    -1.7482521136363636    -0.9030040454545454
O    1.0536433181818183    0.3733468863636364    -0.18911604545454547
C    2.4877833181818185    0.5414958863636363    -0.18817904545454545
H    2.8849863181818183    -0.05701711363636361    -1.0092380454545455
C    3.0103743181818183    0.017014886363636388    1.1451719545454544
H    2.6290143181818184    -0.9973781136363636    1.2700839545454545
H    2.5647793181818184    0.6213728863636364    1.9394939545454546
C    2.7346373181818184    2.0235678863636366    -0.45721604545454547
H    1.9231723181818183    2.3720828863636365    -1.0974950454545456
H    2.6544743181818182    2.5825578863636367    0.47880195454545454
C    4.060457318181818    2.3306668863636366    -1.1452480454545455
H    4.128206318181818    3.3932688863636367    -1.3785320454545456
H    4.920967318181819    2.0744828863636364    -0.5298220454545455
H    4.147235318181818    1.7791168863636364    -2.0829780454545452
C    4.529157318181818    0.002277886363636388    1.3127209545454546
H    4.910828318181818    1.0251098863636365    1.3471389545454544
H    4.745812318181819    -0.4278371136363636    2.2944199545454547
C    5.292977318181818    -0.7928611136363636    0.25283095454545457
H    6.356103318181819    -0.7603821136363637    0.5026069545454546
H    5.199829318181818    -0.30302511363636364    -0.7195700454545454
C    4.841835318181818    -2.2437721136363633    0.12912195454545455
H    5.478644318181819    -2.7908341136363637    -0.5665030454545454
H    4.892125318181819    -2.7509921136363635    1.0953669545454545
H    3.816104318181818    -2.3172971136363634    -0.23438304545454547
C    -0.2776839791442076    0.19434050100303804    3.2254986083398287
H    -1.3266120902308638    0.2507888082533281    2.921128775888266
H    -0.18694355520003617    -0.6108586912959061    3.9569590444805773
C    0.16874969282777205    1.5327565866933508    3.8037186780810606
H    1.2012504843926528    1.4323684630953832    4.158019435434482
C    0.14200221720463338    2.6147231868930265    2.728743642189154
C    -0.7092086886493376    1.9243415617863038    4.988456182360485
H    -0.8785035483926354    2.760928011817019    2.3594216237090997
H    0.49448284340536863    3.5734700177778427    3.1148413207837056
H    0.7669285384363292    2.337258115420811    1.8779529674760715
H    -0.6662603088636213    1.1769916948896535    5.784062945941127
H    -0.41169491409488657    2.8875655442108954    5.409736989323374
H    -1.7517850906862371    2.0091874940916243    4.666889891584809
H    0.3044134608660831    -0.07433163582216544    2.3432352790359876
O    -0.22198042941705762    3.1226451466629674    0.8467848676323828
H    0.39257077129610013    2.460142664864736    0.5160093260409665
C    -0.1574340502275407    4.280532527810339    0.02691936798617904
H    -1.1096212467585826    4.425289767851061    -0.48933434818746513
H    0.04450154574033487    5.15570302171878    0.6468575116843626
H    0.6343724548243784    4.212739559214673    -0.7214977471398287
C    -2.699906641754878    -4.306949690463169    1.069797801517803
C    -1.3061846958273609    -4.275623429993552    0.9520729228039632
C    -0.7159329068799736    -4.551089723857128    -0.29785788050184303
C    -1.4794332096240332    -4.792781573280432    -1.4381599202656516
C    -2.8538074547367387    -4.804428018287253    -1.2997077381321829
C    -3.4593481192563504    -4.577404760539229    -0.052167203282571746
H    -3.1762083232171285    -4.1122566877218265    2.024203759154722
H    -1.0105228601027147    -4.9640309498516775    -2.398360900610106
H    -3.473169341357701    -4.998465790761697    -2.1673650242280025
H    -4.539289836634243    -4.609036378119524    0.025271081339990394
C    -0.23460831721063483    -4.003286700223162    1.877017163676216
C    0.9163147313170296    -4.136631938369349    1.1659054137195843
H    1.9364580367364364    -3.9881800375776404    1.484706390709049
N    0.6459348181690127    -4.510342739742    -0.13311569133140605
H    1.297877374131497    -4.371574458644731    -0.884372798873485
C    -0.3781918279156758    -3.621053060250948    3.313615851079288
H    -0.9051616237555078    -2.6684971846998904    3.414145538326919
H    -0.945478016546192    -4.369394466378063    3.871374286898827
H    0.5965985685690296    -3.5163011973117775    3.7920181847449994
C    -3.505464147149826    3.5147065202377026    -2.654753634099545
C    -4.823573289586593    3.956983187855709    -2.0826117084522284
C    -5.958911438616401    3.1628181643954774    -2.2236797691742898
C    -7.170870471441519    3.526746487151073    -1.6664649134858893
C    -7.274797142003949    4.717110738964592    -0.9587647726430455
O    -8.499048105414952    5.03933011116791    -0.440821493560172
C    -6.160942951213369    5.53025507132003    -0.8130720868030831
C    -4.948611473516442    5.142664612604122    -1.3715685206558705
H    -3.0216323566392598    2.7831447745974196    -2.002387035589589
H    -2.8275104030108924    4.357959974221177    -2.7839279159980457
H    -3.6393512150618865    3.0393452001039236    -3.626330268163201
H    -5.885158498053534    2.2288441922997184    -2.7712563140637605
H    -8.040182723843202    2.890900186570181    -1.7606194628282181
H    -8.429273583437158    5.863392683230585    0.050854133121113046
H    -6.233755277882287    6.467947147313617    -0.272095738040929
H    -4.082409710689986    5.783540544127882    -1.2526757385645462
C    -6.60556741712676    -1.0131968480643845    -4.829898333167535
C    -5.973310284209159    -1.999058267489572    -4.088796130877295
C    -4.627375501860281    -1.876682636244854    -3.7705843044632266
C    -3.8905918917582065    -0.7717256808405599    -4.1800845851454875
C    -4.538537643093717    0.2122441437056131    -4.924201031045777
C    -5.880545350903171    0.09453517056215738    -5.2511306770407895
H    -7.6520827538322065    -1.1102727109572132    -5.089358595708391
H    -6.529633358952363    -2.8665708231662133    -3.7539013594999417
H    -4.143562771041995    -2.6550523737768166    -3.191910855719582
H    -3.980808869189589    1.0822342580137336    -5.251610625524738
H    -6.364435672384923    0.8696538378918364    -5.8333383329276
C    -2.4344230217180485    -0.6396379702673849    -3.829965816353386
H    -2.2436394110901827    0.28999294161864825    -3.2909642315971506
H    -2.1090523203706426    -1.461871103930759    -3.1934940747870857
H    -1.8110256587925357    -0.6400308294310467    -4.726360320232125
N    -6.24378405318344    1.589983286237915    4.915640955541079
H    -6.948699218887284    2.147727894662104    4.46475728553812
H    -6.5494275492059195    0.8826024454492539    5.560559976150942
C    -4.9524681506443375    1.7624719441522425    4.635113882510391
N    -4.042089032068028    0.9382447598091527    5.162619298586607
H    -3.060220799530865    1.07602891888727    4.991847750521852
H    -4.312829766354981    0.11505513819365193    5.673225811222344
N    -4.577272705135048    2.7594811934821237    3.8500452528041156
H    -3.6073748979802445    2.811050399735872    3.5806782001906208
C    -5.497438238972641    3.7204042128274817    3.234095863679229
H    -6.257087831987466    3.173127613968687    2.6699707757164886
H    -5.993057819752753    4.298356562620295    4.018114506720781
C    -4.745573142883591    4.6508272045139885    2.295238335215004
H    -4.105212432451045    4.056427898860593    1.6359996447137277
H    -4.089899425720563    5.298737766788668    2.880893445335547
C    -5.712916724938427    5.482438550482182    1.4623690884517286
H    -5.179162911408992    6.227849550980531    0.8766677789157832
H    -6.276347176312442    4.852502100522913    0.7723802843993949
H    -6.428169413965638    6.0084817389536385    2.095610995142484
N    -12.559037816530267    -3.3891198972929097    0.013611737225331369
H    -12.873828712435397    -4.313157724652616    -0.28852368360996167
H    -13.304877034211483    -2.7187392656597993    -0.183452809286727
C    -12.17733732585452    -3.358102532003027    1.4821946518627183
H    -11.430782102579268    -4.138274815912868    1.6183653905431354
H    -13.072412032266334    -3.622090606072281    2.0419078794430745
C    -11.64121932030933    -1.989544779108536    1.8417016314799117
H    -10.856260778202461    -1.7085257261411424    1.131011253495847
H    -12.435853743917221    -1.2420230284671285    1.7551874532435559
C    -11.052483090109675    -1.96989992268137    3.2501323345840074
H    -10.26773784110499    -2.726832000122308    3.3160452115768306
H    -11.820927362361575    -2.2520899055194117    3.9730806043293154
C    -10.485759014895    -0.6009427495467479    3.6038394591936695
H    -11.28201141846077    0.13380435305523966    3.723898894189575
H    -9.928684507345835    -0.6371559171118517    4.5389477100613815
H    -9.80793531293048    -0.2413536520078458    2.827477147137441
H    -11.755027295188764    -3.1250661172570897    -0.5592757179014061
O    -6.625113390067254    -3.7589224174388995    0.3990322761737076
C    -7.466687201907631    -3.964734057500037    1.3085619679436657
C    -7.065232055557264    -4.989546192930536    2.3876086939972567
H    -7.888143088824324    -5.16219107999311    3.079819834415865
H    -6.7670412926101475    -5.9287631090012125    1.9192927429427546
H    -6.201898342312742    -4.608512976175139    2.936128811623874
O    -8.586640768263367    -3.4191619904955295    1.4466443706786605
C    1.1800895693300406    6.273033891682075    -3.2279030771563293
C    1.0150824289849403    4.875952401537491    -2.647195955379213
C    1.4004816257332822    3.720638965898124    -3.611807120468628
O    1.8429036626301596    4.046647787564393    -4.7309507670856465
O    1.2283517899788519    2.5694070025459976    -3.1413001025185485
H    2.1766382879093893    6.387807361186522    -3.6547859734851307
H    0.47175676820480344    6.441456813961306    -4.040171712638779
H    1.0214294025649306    7.04683521933397    -2.4698541395010776
H    1.6254598866228753    4.755841779583423    -1.7451275923452303
H    -0.017669368633264636    4.7029003722610145    -2.330805599425139
