153
placed: leucine serine tryptophan tyrosine phenylalanine lysine glutamic isoleucine
C    -5.945350681818182    0.23278688636363637    0.16006995454545458
C    -5.172542681818181    1.3434288863636366    0.4925409545454545
C    -3.7998686818181815    1.2793748863636365    0.39736195454545453
C    -3.1473386818181814    0.11847288636363638    -0.02927704545454544
C    -3.9371006818181815    -0.9809231136363636    -0.35633604545454545
C    -5.3173046818181815    -0.9356211136363636    -0.26665404545454546
H    -5.670811681818182    2.2442728863636363    0.8226839545454546
H    -3.2111576818181815    2.1500078863636363    0.6591099545454546
H    -3.4746566818181814    -1.9003121136363634    -0.6895730454545455
H    -5.890931681818182    -1.8116101136363636    -0.5298930454545454
O    -7.280922681818182    0.38014688636363636    0.2814289545454545
C    -8.110493681818182    -0.7119621136363636    -0.04155404545454544
H    -7.905391681818181    -1.5729501136363635    0.6002269545454546
H    -9.130393681818182    -0.3767111136363636    0.12538195454545453
H    -7.995182681818181    -1.0053401136363636    -1.0883910454545456
C    -1.6885196818181818    0.1151798863636364    -0.11031904545454545
H    -1.2043856818181817    1.0389918863636365    0.18673795454545455
C    -0.9047716818181817    -0.8889731136363637    -0.5051070454545454
H    -1.2957356818181818    -1.8473391136363635    -0.8184200454545454
C    0.5661873181818183    -0.8176351136363637    -0.5564920454545454
O    1.2535253181818184    -1.7482521136363636    -0.9030040454545454
O    1.0536433181818183    0.3733468863636364    -0.18911604545454547
C    2.4877833181818185    0.5414958863636363    -0.18817904545454545
H    2.8849863181818183    -0.05701711363636361    -1.0092380454545455
C    3.0103743181818183    0.017014886363636388    1.1451719545454544
H    2.6290143181818184    -0.9973781136363636    1.2700839545454545
H    2.5647793181818184    0.6213728863636364    1.9394939545454546
C    2.7346373181818184    2.0235678863636366    -0.45721604545454547
H    1.9231723181818183    2.3720828863636365    -1.0974950454545456
H    2.6544743181818182    2.5825578863636367    0.47880195454545454
C    4.060457318181818    2.3306668863636366    -1.1452480454545455
H    4.128206318181818    3.3932688863636367    -1.3785320454545456
H    4.920967318181819    2.0744828863636364    -0.5298220454545455
H    4.147235318181818    1.7791168863636364    -2.0829780454545452
C    4.529157318181818    0.002277886363636388    1.3127209545454546
H    4.910828318181818    1.0251098863636365    1.3471389545454544
H    4.745812318181819    -0.4278371136363636    2.2944199545454547
C    5.292977318181818    -0.7928611136363636    0.25283095454545457
H    6.356103318181819    -0.7603821136363637    0.5026069545454546
H    5.199829318181818    -0.30302511363636364    -0.7195700454545454
C    4.841835318181818    -2.2437721136363633    0.12912195454545455
H    5.478644318181819    -2.7908341136363637    -0.5665030454545454
H    4.892125318181819    -2.7509921136363635    1.0953669545454545
H    3.816104318181818    -2.3172971136363634    -0.23438304545454547
C    -0.2776839791442076    0.19434050100303804    3.2254986083398287
H    -1.3266120902308638    0.2507888082533281    2.921128775888266
H    -0.18694355520003617    -0.6108586912959061    3.9569590444805773
C    0.16874969282777205    1.5327565866933508    3.8037186780810606
H    1.2012504843926528    1.4323684630953832    4.158019435434482
C    0.14200221720463338    2.6147231868930265    2.728743642189154
C    -0.7092086886493376    1.9243415617863038    4.988456182360485
H    -0.8785035483926354    2.760928011817019    2.3594216237090997
H    0.49448284340536863    3.5734700177778427    3.1148413207837056
H    0.7669285384363292    2.337258115420811    1.8779529674760715
H    -0.6662603088636213    1.1769916948896535    5.784062945941127
H    -0.41169491409488657    2.8875655442108954    5.409736989323374
H    -1.7517850906862371    2.0091874940916243    4.666889891584809
H    0.3044134608660831    -0.07433163582216544    2.3432352790359876
O    -0.22198042941705762    3.1226451466629674    0.8467848676323828
H    0.39257077129610013    2.460142664864736    0.5160093260409665
C    -0.1574340502275407    4.280532527810339    0.02691936798617904
H    -1.1096212467585826    4.425289767851061    -0.48933434818746513
H    0.04450154574033487    5.15570302171878    0.6468575116843626
H    0.6343724548243784    4.212739559214673    -0.7214977471398287
C    -2.699906641754878    -4.306949690463169    1.069797801517803
C    -1.3061846958273609    -4.275623429993552    0.9520729228039632
C    -0.7159329068799736    -4.551089723857128    -0.29785788050184303
C    -1.4794332096240332    -4.792781573280432    -1.4381599202656516
C    -2.8538074547367387    -4.804428018287253    -1.2997077381321829
C    -3.4593481192563504    -4.577404760539229    -0.052167203282571746
H    -3.1762083232171285    -4.1122566877218265    2.024203759154722
H    -1.0105228601027147    -4.9640309498516775    -2.398360900610106
H    -3.473169341357701    -4.998465790761697    -2.1673650242280025
H    -4.539289836634243    -4.609036378119524    0.025271081339990394
C    -0.23460831721063483    -4.003286700223162    1.877017163676216
C    0.9163147313170296    -4.136631938369349    1.1659054137195843
H    1.9364580367364364    -3.9881800375776404    1.484706390709049
N    0.6459348181690127    -4.510342739742    -0.13311569133140605
H    1.297877374131497    -4.371574458644731    -0.884372798873485
C    -0.3781918279156758    -3.621053060250948    3.313615851079288
H    -0.9051616237555078    -2.6684971846998904    3.414145538326919
H    -0.945478016546192    -4.369394466378063    3.871374286898827
H    0.5965985685690296    -3.5163011973117775    3.7920181847449994
C    -6.224444089864715    -5.507391235363129    1.4205333254794448
C    -5.427137409879571    -6.196855842011873    2.2902713957248504
C    -5.131248915873873    -5.5636511177421815    3.4984490074503243
C    -5.624056005654149    -4.295939838213156    3.7901599278915303
C    -6.42344658589135    -3.649835972599158    2.8482743755585465
C    -6.740954177829905    -4.256846082814337    1.6344129373366092
H    -5.0348884589366545    -7.182150025474798    2.0747793060621387
H    -4.5076582978317825    -6.073761629100608    4.224187031012769
H    -6.807926765010509    -2.6578636581029396    3.061046802063828
H    -7.371331779106076    -3.7585697363714727    0.9082775972678958
C    -5.310440472177648    -3.637837814637526    5.107325995148941
H    -6.212484302930848    -3.5137466462715907    5.709099662047756
H    -4.604917101010139    -4.2336178176716075    5.685655404516595
H    -4.87553663949598    -2.649256958100656    4.959032250872037
H    -5.634932603748972    -4.302332983334514    -2.5285014261262817
O    -5.990224734742701    -3.4140801947007224    -2.4214101894226556
H    -5.455079058238682    -2.859009361824263    -2.99807838723446
C    -4.458922012916631    5.666873095343819    -0.8229022921115977
C    -3.304689735658608    5.444802811638377    -0.08293066824330897
C    -3.3878851341650313    4.973067099551494    1.2186677780283826
C    -4.62326370210142    4.698441664508187    1.8014442952049103
C    -5.770546815695458    4.924750720046271    1.0496571978668232
C    -5.693968120087195    5.4095634688363905    -0.2491358707979065
H    -4.395595810777574    6.035493186309744    -1.838980410944504
H    -2.335722201717525    5.636886721918086    -0.5247836826546478
H    -2.482996665462456    4.813692271402694    1.795060088812827
H    -6.737358598212782    4.710398984972439    1.4906182684041396
H    -6.602099155644615    5.572699563272458    -0.8155888147718505
C    -4.715047923385747    4.120021053333554    3.1880275268051252
H    -4.344812468441299    3.0914490770518523    3.20003090681658
H    -4.121655297814248    4.689714524527626    3.904711194483654
H    -5.7473595628004155    4.105466698917285    3.5369970019500934
N    -2.98965419167988    1.070835641766168    -2.9644319150640768
H    -2.0507009107564356    1.4145825389560407    -2.7551088947160762
H    -3.250977373615515    0.4513295586510292    -2.1796602326433208
C    -4.007735367129729    2.1746486004047085    -3.0846689048127045
H    -3.678476357996471    2.841249719042652    -3.880222480394362
H    -3.9873657882047246    2.706555058243069    -2.1358202326012656
C    -5.372544515979213    1.578326089113671    -3.3549836342431103
H    -5.3383776691599625    0.9835380103607897    -4.27423678945064
H    -5.630172450309214    0.899288227069773    -2.5363939792798944
C    -6.448128471193208    2.6526361516017913    -3.4888090231731343
H    -6.202950774486346    3.303663027382036    -4.331204259282912
H    -6.451226053290126    3.282789344144308    -2.594599284919839
C    -7.826109495357071    2.0374273920007635    -3.692014047267572
H    -8.122380108484707    1.462723865186741    -2.812279073783573
H    -8.581118135851536    2.804815319697454    -3.8587829403778358
H    -7.834053787209995    1.369105101537057    -4.555345894443767
H    -2.941970697754408    0.5129937680876749    -3.8184091698786484
C    -2.2101958455714628    -2.160906222153259    -3.217282595141261
O    -2.6012561224109527    -2.989025257171231    -2.3490151493484674
O    -2.6062677139140886    -0.9888195414367489    -3.3808500487407134
C    -1.070740043960287    -2.6531828512776423    -4.1286741327121526
H    -0.9871695273742016    -2.0450017432580303    -5.029491224415135
H    -0.13480657464186338    -2.578701080120955    -3.5677599668388402
H    -1.2164890993468442    -3.7015202671580094    -4.388091656687259
C    -7.5651679591474466    1.3541332168748657    3.573714837569452
H    -6.902360210223691    1.3132488759061212    2.7063525402047337
C    -7.6052086254770535    -0.018104618996367273    4.2333697559661605
C    -8.939415042477341    1.8375529897942424    3.1274320020079074
H    -8.236996141201086    -0.014623731230847781    5.123798515606278
H    -8.009738983455279    -0.7651056042709405    3.5454123404318296
H    -6.608665873471549    -0.3481059957917483    4.526018276288882
H    -9.398631614628185    1.0759443715633905    2.489419292481853
H    -9.590311869105632    1.9358398587671635    4.001588199727901
C    -8.883564319916122    3.1550332871519364    2.366605884210736
H    -8.313102529280643    3.0377493050254314    1.4425661482244556
H    -9.880384314046925    3.510239522343196    2.101244832402549
H    -8.401757775676744    3.9331674047187426    2.962711156998318
H    -7.129722875097398    2.088497542317093    4.2596112713141965
