152
placed: serine tryptophan tyrosine arginine lysine aspartic glutamic leucine
C    -5.945350681818182    0.23278688636363637    0.16006995454545458
C    -5.172542681818181    1.3434288863636366    0.4925409545454545
C    -3.7998686818181815    1.2793748863636365    0.39736195454545453
C    -3.1473386818181814    0.11847288636363638    -0.02927704545454544
C    -3.9371006818181815    -0.9809231136363636    -0.35633604545454545
C    -5.3173046818181815    -0.9356211136363636    -0.26665404545454546
H    -5.670811681818182    2.2442728863636363    0.8226839545454546
H    -3.2111576818181815    2.1500078863636363    0.6591099545454546
H    -3.4746566818181814    -1.9003121136363634    -0.6895730454545455
H    -5.890931681818182    -1.8116101136363636    -0.5298930454545454
O    -7.280922681818182    0.38014688636363636    0.2814289545454545
C    -8.110493681818182    -0.7119621136363636    -0.04155404545454544
H    -7.905391681818181    -1.5729501136363635    0.6002269545454546
H    -9.130393681818182    -0.3767111136363636    0.12538195454545453
H    -7.995182681818181    -1.0053401136363636    -1.0883910454545456
C    -1.6885196818181818    0.1151798863636364    -0.11031904545454545
H    -1.2043856818181817    1.0389918863636365    0.18673795454545455
C    -0.9047716818181817    -0.8889731136363637    -0.5051070454545454
H    -1.2957356818181818    -1.8473391136363635    -0.8184200454545454
C    0.5661873181818183    -0.8176351136363637    -0.5564920454545454
O    1.2535253181818184    -1.7482521136363636    -0.9030040454545454
O    1.0536433181818183    0.3733468863636364    -0.18911604545454547
C    2.4877833181818185    0.5414958863636363    -0.18817904545454545
H    2.8849863181818183    -0.05701711363636361    -1.0092380454545455
C    3.0103743181818183    0.017014886363636388    1.1451719545454544
H    2.6290143181818184    -0.9973781136363636    1.2700839545454545
H    2.5647793181818184    0.6213728863636364    1.9394939545454546
C    2.7346373181818184    2.0235678863636366    -0.45721604545454547
H    1.9231723181818183    2.3720828863636365    -1.0974950454545456
H    2.6544743181818182    2.5825578863636367    0.47880195454545454
C    4.060457318181818    2.3306668863636366    -1.1452480454545455
H    4.128206318181818    3.3932688863636367    -1.3785320454545456
H    4.920967318181819    2.0744828863636364    -0.5298220454545455
H    4.147235318181818    1.7791168863636364    -2.0829780454545452
C    4.529157318181818    0.002277886363636388    1.3127209545454546
H    4.910828318181818    1.0251098863636365    1.3471389545454544
H    4.745812318181819    -0.4278371136363636    2.2944199545454547
C    5.292977318181818    -0.7928611136363636    0.25283095454545457
H    6.356103318181819    -0.7603821136363637    0.5026069545454546
H    5.199829318181818    -0.30302511363636364    -0.7195700454545454
C    4.841835318181818    -2.2437721136363633    0.12912195454545455
H    5.478644318181819    -2.7908341136363637    -0.5665030454545454
H    4.892125318181819    -2.7509921136363635    1.0953669545454545
H    3.816104318181818    -2.3172971136363634    -0.23438304545454547
O    -0.030690504415567355    2.358282749257033    1.8475902230313093
H    0.3741746579095576    1.5828070267191494    1.4395856492977124
C    -0.6973170704346316    1.974567744195764    3.038108684640649
H    -1.2917017742773464    2.8283430387647783    3.3628937592140207
H    -1.371882739392323    1.1261775369854372    2.8818438377634448
H    0.008449845745119798    1.721295601331869    3.835404495353595
C    -2.699906641754878    -4.306949690463169    1.069797801517803
C    -1.3061846958273609    -4.275623429993552    0.9520729228039632
C    -0.7159329068799736    -4.551089723857128    -0.29785788050184303
C    -1.4794332096240332    -4.792781573280432    -1.4381599202656516
C    -2.8538074547367387    -4.804428018287253    -1.2997077381321829
C    -3.4593481192563504    -4.577404760539229    -0.052167203282571746
H    -3.1762083232171285    -4.1122566877218265    2.024203759154722
H    -1.0105228601027147    -4.9640309498516775    -2.398360900610106
H    -3.473169341357701    -4.998465790761697    -2.1673650242280025
H    -4.539289836634243    -4.609036378119524    0.025271081339990394
C    -0.23460831721063483    -4.003286700223162    1.877017163676216
C    0.9163147313170296    -4.136631938369349    1.1659054137195843
H    1.9364580367364364    -3.9881800375776404    1.484706390709049
N    0.6459348181690127    -4.510342739742    -0.13311569133140605
H    1.297877374131497    -4.371574458644731    -0.884372798873485
C    -0.3781918279156758    -3.621053060250948    3.313615851079288
H    -0.9051616237555078    -2.6684971846998904    3.414145538326919
H    -0.945478016546192    -4.369394466378063    3.871374286898827
H    0.5965985685690296    -3.5163011973117775    3.7920181847449994
C    -1.5544311115722562    4.4803661343178245    -1.031520378089515
C    -1.7926098489467956    3.3487150468455593    -1.9959279805564536
C    -3.0644762155023635    3.0318880149457224    -2.4615398388165044
C    -3.2763348114886957    1.963977943345591    -3.319594620666383
C    -2.202907671000422    1.190628849296877    -3.7325425011805
O    -2.452101874946039    0.14520795922787416    -4.576579212806806
C    -0.9230403937664757    1.494508930702599    -3.290316413483943
C    -0.7310139863774026    2.5651765959119857    -2.434615611129688
H    -2.4430370200750198    5.1007617812814185    -0.9194859902338555
H    -0.7371031621140891    5.122080247466398    -1.3659538718613595
H    -1.2863812889672308    4.102281140492442    -0.04114287084980621
H    -3.917179608824994    3.6190448736543477    -2.13839094622139
H    -4.267978123284179    1.7219010246335484    -3.6750474053199382
H    -1.6255392910221327    -0.31742524652377446    -4.751629178517445
H    -0.081598221159498    0.8891175283002336    -3.6112105082227957
H    0.26933936522822727    2.7898175304949477    -2.089154501283218
N    -6.24378405318344    1.589983286237915    4.915640955541079
H    -6.948699218887284    2.147727894662104    4.46475728553812
H    -6.5494275492059195    0.8826024454492539    5.560559976150942
C    -4.9524681506443375    1.7624719441522425    4.635113882510391
N    -4.042089032068028    0.9382447598091527    5.162619298586607
H    -3.060220799530865    1.07602891888727    4.991847750521852
H    -4.312829766354981    0.11505513819365193    5.673225811222344
N    -4.577272705135048    2.7594811934821237    3.8500452528041156
H    -3.6073748979802445    2.811050399735872    3.5806782001906208
C    -5.497438238972641    3.7204042128274817    3.234095863679229
H    -6.257087831987466    3.173127613968687    2.6699707757164886
H    -5.993057819752753    4.298356562620295    4.018114506720781
C    -4.745573142883591    4.6508272045139885    2.295238335215004
H    -4.105212432451045    4.056427898860593    1.6359996447137277
H    -4.089899425720563    5.298737766788668    2.880893445335547
C    -5.712916724938427    5.482438550482182    1.4623690884517286
H    -5.179162911408992    6.227849550980531    0.8766677789157832
H    -6.276347176312442    4.852502100522913    0.7723802843993949
H    -6.428169413965638    6.0084817389536385    2.095610995142484
N    -12.559037816530267    -3.3891198972929097    0.013611737225331369
H    -12.873828712435397    -4.313157724652616    -0.28852368360996167
H    -13.304877034211483    -2.7187392656597993    -0.183452809286727
C    -12.17733732585452    -3.358102532003027    1.4821946518627183
H    -11.430782102579268    -4.138274815912868    1.6183653905431354
H    -13.072412032266334    -3.622090606072281    2.0419078794430745
C    -11.64121932030933    -1.989544779108536    1.8417016314799117
H    -10.856260778202461    -1.7085257261411424    1.131011253495847
H    -12.435853743917221    -1.2420230284671285    1.7551874532435559
C    -11.052483090109675    -1.96989992268137    3.2501323345840074
H    -10.26773784110499    -2.726832000122308    3.3160452115768306
H    -11.820927362361575    -2.2520899055194117    3.9730806043293154
C    -10.485759014895    -0.6009427495467479    3.6038394591936695
H    -11.28201141846077    0.13380435305523966    3.723898894189575
H    -9.928684507345835    -0.6371559171118517    4.5389477100613815
H    -9.80793531293048    -0.2413536520078458    2.827477147137441
H    -11.755027295188764    -3.1250661172570897    -0.5592757179014061
O    -6.625113390067254    -3.7589224174388995    0.3990322761737076
C    -7.466687201907631    -3.964734057500037    1.3085619679436657
C    -7.065232055557264    -4.989546192930536    2.3876086939972567
H    -7.888143088824324    -5.16219107999311    3.079819834415865
H    -6.7670412926101475    -5.9287631090012125    1.9192927429427546
H    -6.201898342312742    -4.608512976175139    2.936128811623874
O    -8.586640768263367    -3.4191619904955295    1.4466443706786605
C    -6.225884879526323    2.162307528109943    -2.8342294588424095
C    -7.384276105973484    2.248464954120369    -3.818342277266205
C    -7.00491052067343    2.0388637126584284    -5.313780953841815
O    -5.856920953268391    1.5957634507771903    -5.53888137725121
O    -7.9101620706457485    2.3270596756588082    -6.128632254738826
H    -5.6972707864066265    1.212200091927253    -2.930893529520732
H    -5.49355353587621    2.9450289112348242    -3.0391275425099598
H    -6.565228353769579    2.281667468034746    -1.7996571733969262
H    -8.150537930997865    1.5022518209729898    -3.579660033477044
H    -7.884428877057636    3.2166266961485657    -3.737849541356755
C    -2.4899514071918527    -0.712239540015344    3.702716412113066
H    -2.355262893050795    -1.7951829672576942    3.6195388246874987
H    -2.6959145542071035    -0.33077912802223486    2.7004870435057673
C    -1.2514088354803872    -0.058099329177489514    4.309144177189201
H    -1.4522686867126189    1.0140434316347469    4.416010052554842
C    -0.9528373169143209    -0.6180912111771134    5.695338354805096
C    -0.04205346060125235    -0.22011746259334172    3.393924781753136
H    -0.7075880540942844    -1.6816364425452042    5.634207129612261
H    -0.10446520840113449    -0.10385911512696738    6.15007253930699
H    -1.8082355671506    -0.5103406721458285    6.363543702807571
H    -0.1912525727703833    0.282938183647361    2.4359996281252383
H    0.8572716139068417    0.19368367557382965    3.8572083463534637
H    0.1459337279686807    -1.2784606497493898    3.1834231141019176
H    -3.3734011067014795    -0.531176286961863    4.318805548346947
