202
placed: serine tryptophan tyrosine phenylalanine arginine lysine aspartic glutamic leucine serine tyrosine leucine
C    -5.945350681818182    0.23278688636363637    0.16006995454545458
C    -5.172542681818181    1.3434288863636366    0.4925409545454545
C    -3.7998686818181815    1.2793748863636365    0.39736195454545453
C    -3.1473386818181814    0.11847288636363638    -0.02927704545454544
C    -3.9371006818181815    -0.9809231136363636    -0.35633604545454545
C    -5.3173046818181815    -0.9356211136363636    -0.26665404545454546
H    -5.670811681818182    2.2442728863636363    0.8226839545454546
H    -3.2111576818181815    2.1500078863636363    0.6591099545454546
H    -3.4746566818181814    -1.9003121136363634    -0.6895730454545455
H    -5.890931681818182    -1.8116101136363636    -0.5298930454545454
O    -7.280922681818182    0.38014688636363636    0.2814289545454545
C    -8.110493681818182    -0.7119621136363636    -0.04155404545454544
H    -7.905391681818181    -1.5729501136363635    0.6002269545454546
H    -9.130393681818182    -0.3767111136363636    0.12538195454545453
H    -7.995182681818181    -1.0053401136363636    -1.0883910454545456
C    -1.6885196818181818    0.1151798863636364    -0.11031904545454545
H    -1.2043856818181817    1.0389918863636365    0.18673795454545455
C    -0.9047716818181817    -0.8889731136363637    -0.5051070454545454
H    -1.2957356818181818    -1.8473391136363635    -0.8184200454545454
C    0.5661873181818183    -0.8176351136363637    -0.5564920454545454
O    1.2535253181818184    -1.7482521136363636    -0.9030040454545454
O    1.0536433181818183    0.3733468863636364    -0.18911604545454547
C    2.4877833181818185    0.5414958863636363    -0.18817904545454545
H    2.8849863181818183    -0.05701711363636361    -1.0092380454545455
C    3.0103743181818183    0.017014886363636388    1.1451719545454544
H    2.6290143181818184    -0.9973781136363636    1.2700839545454545
H    2.5647793181818184    0.6213728863636364    1.9394939545454546
C    2.7346373181818184    2.0235678863636366    -0.45721604545454547
H    1.9231723181818183    2.3720828863636365    -1.0974950454545456
H    2.6544743181818182    2.5825578863636367    0.47880195454545454
C    4.060457318181818    2.3306668863636366    -1.1452480454545455
H    4.128206318181818    3.3932688863636367    -1.3785320454545456
H    4.920967318181819    2.0744828863636364    -0.5298220454545455
H    4.147235318181818    1.7791168863636364    -2.0829780454545452
C    4.529157318181818    0.002277886363636388    1.3127209545454546
H    4.910828318181818    1.0251098863636365    1.3471389545454544
H    4.745812318181819    -0.4278371136363636    2.2944199545454547
C    5.292977318181818    -0.7928611136363636    0.25283095454545457
H    6.356103318181819    -0.7603821136363637    0.5026069545454546
H    5.199829318181818    -0.30302511363636364    -0.7195700454545454
C    4.841835318181818    -2.2437721136363633    0.12912195454545455
H    5.478644318181819    -2.7908341136363637    -0.5665030454545454
H    4.892125318181819    -2.7509921136363635    1.0953669545454545
H    3.816104318181818    -2.3172971136363634    -0.23438304545454547
O    -0.030690504415567355    2.358282749257033    1.8475902230313093
H    0.3741746579095576    1.5828070267191494    1.4395856492977124
C    -0.6973170704346316    1.974567744195764    3.038108684640649
H    -1.2917017742773464    2.8283430387647783    3.3628937592140207
H    -1.371882739392323    1.1261775369854372    2.8818438377634448
H    0.008449845745119798    1.721295601331869    3.835404495353595
C    -2.699906641754878    -4.306949690463169    1.069797801517803
C    -1.3061846958273609    -4.275623429993552    0.9520729228039632
C    -0.7159329068799736    -4.551089723857128    -0.29785788050184303
C    -1.4794332096240332    -4.792781573280432    -1.4381599202656516
C    -2.8538074547367387    -4.804428018287253    -1.2997077381321829
C    -3.4593481192563504    -4.577404760539229    -0.052167203282571746
H    -3.1762083232171285    -4.1122566877218265    2.024203759154722
H    -1.0105228601027147    -4.9640309498516775    -2.398360900610106
H    -3.473169341357701    -4.998465790761697    -2.1673650242280025
H    -4.539289836634243    -4.609036378119524    0.025271081339990394
C    -0.23460831721063483    -4.003286700223162    1.877017163676216
C    0.9163147313170296    -4.136631938369349    1.1659054137195843
H    1.9364580367364364    -3.9881800375776404    1.484706390709049
N    0.6459348181690127    -4.510342739742    -0.13311569133140605
H    1.297877374131497    -4.371574458644731    -0.884372798873485
C    -0.3781918279156758    -3.621053060250948    3.313615851079288
H    -0.9051616237555078    -2.6684971846998904    3.414145538326919
H    -0.945478016546192    -4.369394466378063    3.871374286898827
H    0.5965985685690296    -3.5163011973117775    3.7920181847449994
C    -6.224444089864715    -5.507391235363129    1.4205333254794448
C    -5.427137409879571    -6.196855842011873    2.2902713957248504
C    -5.131248915873873    -5.5636511177421815    3.4984490074503243
C    -5.624056005654149    -4.295939838213156    3.7901599278915303
C    -6.42344658589135    -3.649835972599158    2.8482743755585465
C    -6.740954177829905    -4.256846082814337    1.6344129373366092
H    -5.0348884589366545    -7.182150025474798    2.0747793060621387
H    -4.5076582978317825    -6.073761629100608    4.224187031012769
H    -6.807926765010509    -2.6578636581029396    3.061046802063828
H    -7.371331779106076    -3.7585697363714727    0.9082775972678958
C    -5.310440472177648    -3.637837814637526    5.107325995148941
H    -6.212484302930848    -3.5137466462715907    5.709099662047756
H    -4.604917101010139    -4.2336178176716075    5.685655404516595
H    -4.87553663949598    -2.649256958100656    4.959032250872037
H    -5.634932603748972    -4.302332983334514    -2.5285014261262817
O    -5.990224734742701    -3.4140801947007224    -2.4214101894226556
H    -5.455079058238682    -2.859009361824263    -2.99807838723446
C    -2.823252246736432    4.734564589582956    -0.44806844961266656
C    -3.357488836273031    4.223037001437602    -1.6218636156377837
C    -2.5909678059778556    3.4082564706995977    -2.442281695285223
C    -1.2783298347419532    3.0897823275053957    -2.109294413621564
C    -0.7514539771559506    3.6152353138575526    -0.9315686028012068
C    -1.5115875454526302    4.432910119604858    -0.1083994763052619
H    -3.421663605692192    5.365389662368654    0.19640544490850484
H    -4.373528743923541    4.464812092122307    -1.9053568116174806
H    -3.0181719904096305    3.014226063504592    -3.357296926954916
H    0.2649434428567729    3.3744834817271068    -0.6496057529018081
H    -1.0738081629565337    4.834244463052748    0.7980407135056805
C    -0.4557587848239356    2.1925448354655592    -2.9945954971246245
H    -0.522008737899114    1.1554374690918605    -2.660352586956865
H    -0.803877235078807    2.227843139190249    -4.026610779533203
H    0.5961541326344693    2.4789558529634843    -2.98422894758169
N    -6.24378405318344    1.589983286237915    4.915640955541079
H    -6.948699218887284    2.147727894662104    4.46475728553812
H    -6.5494275492059195    0.8826024454492539    5.560559976150942
C    -4.9524681506443375    1.7624719441522425    4.635113882510391
N    -4.042089032068028    0.9382447598091527    5.162619298586607
H    -3.060220799530865    1.07602891888727    4.991847750521852
H    -4.312829766354981    0.11505513819365193    5.673225811222344
N    -4.577272705135048    2.7594811934821237    3.8500452528041156
H    -3.6073748979802445    2.811050399735872    3.5806782001906208
C    -5.497438238972641    3.7204042128274817    3.234095863679229
H    -6.257087831987466    3.173127613968687    2.6699707757164886
H    -5.993057819752753    4.298356562620295    4.018114506720781
C    -4.745573142883591    4.6508272045139885    2.295238335215004
H    -4.105212432451045    4.056427898860593    1.6359996447137277
H    -4.089899425720563    5.298737766788668    2.880893445335547
C    -5.712916724938427    5.482438550482182    1.4623690884517286
H    -5.179162911408992    6.227849550980531    0.8766677789157832
H    -6.276347176312442    4.852502100522913    0.7723802843993949
H    -6.428169413965638    6.0084817389536385    2.095610995142484
N    -12.559037816530267    -3.3891198972929097    0.013611737225331369
H    -12.873828712435397    -4.313157724652616    -0.28852368360996167
H    -13.304877034211483    -2.7187392656597993    -0.183452809286727
C    -12.17733732585452    -3.358102532003027    1.4821946518627183
H    -11.430782102579268    -4.138274815912868    1.6183653905431354
H    -13.072412032266334    -3.622090606072281    2.0419078794430745
C    -11.64121932030933    -1.989544779108536    1.8417016314799117
H    -10.856260778202461    -1.7085257261411424    1.131011253495847
H    -12.435853743917221    -1.2420230284671285    1.7551874532435559
C    -11.052483090109675    -1.96989992268137    3.2501323345840074
H    -10.26773784110499    -2.726832000122308    3.3160452115768306
H    -11.820927362361575    -2.2520899055194117    3.9730806043293154
C    -10.485759014895    -0.6009427495467479    3.6038394591936695
H    -11.28201141846077    0.13380435305523966    3.723898894189575
H    -9.928684507345835    -0.6371559171118517    4.5389477100613815
H    -9.80793531293048    -0.2413536520078458    2.827477147137441
H    -11.755027295188764    -3.1250661172570897    -0.5592757179014061
O    -6.287541301276057    0.32716170947937856    -2.7369224569268717
C    -7.504783201845332    0.4624551867794361    -2.9963012286709914
C    -8.053422186696515    1.8995293593286477    -2.8725744531347934
H    -9.136563889801714    1.9176915954976366    -2.99213779999611
H    -7.776663276893142    2.305418822048618    -1.8969970699721088
H    -7.5899452510789525    2.5323781108037036    -3.6324368641916065
O    -8.326661483148998    -0.43242277453374955    -3.307181937964573
C    -2.2101958455714628    -2.160906222153259    -3.217282595141261
O    -2.6012561224109527    -2.989025257171231    -2.3490151493484674
O    -2.6062677139140886    -0.9888195414367489    -3.3808500487407134
C    -1.070740043960287    -2.6531828512776423    -4.1286741327121526
H    -0.9871695273742016    -2.0450017432580303    -5.029491224415135
H    -0.13480657464186338    -2.578701080120955    -3.5677599668388402
H    -1.2164890993468442    -3.7015202671580094    -4.388091656687259
C    -2.4899514071918527    -0.712239540015344    3.702716412113066
H    -2.355262893050795    -1.7951829672576942    3.6195388246874987
H    -2.6959145542071035    -0.33077912802223486    2.7004870435057673
C    -1.2514088354803872    -0.058099329177489514    4.309144177189201
H    -1.4522686867126189    1.0140434316347469    4.416010052554842
C    -0.9528373169143209    -0.6180912111771134    5.695338354805096
C    -0.04205346060125235    -0.22011746259334172    3.393924781753136
H    -0.7075880540942844    -1.6816364425452042    5.634207129612261
H    -0.10446520840113449    -0.10385911512696738    6.15007253930699
H    -1.8082355671506    -0.5103406721458285    6.363543702807571
H    -0.1912525727703833    0.282938183647361    2.4359996281252383
H    0.8572716139068417    0.19368367557382965    3.8572083463534637
H    0.1459337279686807    -1.2784606497493898    3.1834231141019176
H    -3.3734011067014795    -0.531176286961863    4.318805548346947
O    7.376487303215594    -1.4493061256842885    -2.841585536453418
H    6.794926639358148    -1.8456053664356473    -2.186530527296152
C    7.29829440791951    -0.03952489555208707    -2.7200060629254725
H    6.292892556895495    0.3373010601397994    -2.931273300549479
H    7.600475955250925    0.3019472924830167    -1.7260286583767055
H    7.981686341530107    0.379333074650667    -3.454737401881322
C    8.664808506866335    0.394126271654433    2.23715078881773
C    8.663517164181505    1.13234521223521    1.0835901199554863
C    7.80640353590442    2.232121199130061    1.0567641018527545
C    7.0077947493890616    2.551762937853615    2.1557079055874544
C    7.060676822925723    1.7424405553595148    3.2864920028742555
C    7.90450088031416    0.6291206919441623    3.347157147908473
H    9.280802288398665    0.8836619866756177    0.22915594142670528
H    7.762202955176705    2.8459087346623018    0.16298246364932992
H    6.429265928286924    1.972765272074433    4.13761208724669
H    7.944030634911392    -0.004977507397472848    4.224174813090993
C    6.0978431542162355    3.7528303379283683    2.11096457319667
H    6.673273922897418    4.678934868647107    2.0517836252379964
H    5.439885071404987    3.7193251086199592    1.2396989901788444
H    5.473724685320046    3.8036676231675672    3.0028349678653457
H    8.626003362669005    -2.062707487458541    2.741083328934659
O    8.487493175905515    -2.8284196019641907    3.310786494248526
H    7.807706182966991    -3.3437564816596383    2.864770067130785
C    2.2303431589108786    5.8125270930328234    0.8592848841711704
H    2.6275400070790234    6.749117998936915    1.2596765005058443
H    1.3633979146433484    6.054860969887418    0.24209736193941983
C    1.8621733678388062    4.865325676470153    1.99639144656711
H    1.3755905053552573    3.9852569442569608    1.563102873501333
C    3.1119883889489715    4.404746208178509    2.7399634920868303
C    0.8775684566989626    5.52746551338338    2.9533914355262914
H    3.6191613756213363    5.2621982177841495    3.1890285503938833
H    2.8640591010501146    3.70610780877315    3.5407877777145207
H    3.8237267907430033    3.9196015421010055    2.068101168826554
H    0.016879920738527773    5.933303949508157    2.4184198943670374
H    0.512586827936891    4.818768800713202    3.6982107556849164
H    1.3644140212192928    6.353045374375529    3.4787778775186218
H    2.9910568567290183    5.371217749126471    0.21220228277439318
