148
placed: tryptophan tyrosine phenylalanine lysine aspartic glutamic leucine serine
C    -5.945350681818182    0.23278688636363637    0.16006995454545458
C    -5.172542681818181    1.3434288863636366    0.4925409545454545
C    -3.7998686818181815    1.2793748863636365    0.39736195454545453
C    -3.1473386818181814    0.11847288636363638    -0.02927704545454544
C    -3.9371006818181815    -0.9809231136363636    -0.35633604545454545
C    -5.3173046818181815    -0.9356211136363636    -0.26665404545454546
H    -5.670811681818182    2.2442728863636363    0.8226839545454546
H    -3.2111576818181815    2.1500078863636363    0.6591099545454546
H    -3.4746566818181814    -1.9003121136363634    -0.6895730454545455
H    -5.890931681818182    -1.8116101136363636    -0.5298930454545454
O    -7.280922681818182    0.38014688636363636    0.2814289545454545
C    -8.110493681818182    -0.7119621136363636    -0.04155404545454544
H    -7.905391681818181    -1.5729501136363635    0.6002269545454546
H    -9.130393681818182    -0.3767111136363636    0.12538195454545453
H    -7.995182681818181    -1.0053401136363636    -1.0883910454545456
C    -1.6885196818181818    0.1151798863636364    -0.11031904545454545
H    -1.2043856818181817    1.0389918863636365    0.18673795454545455
C    -0.9047716818181817    -0.8889731136363637    -0.5051070454545454
H    -1.2957356818181818    -1.8473391136363635    -0.8184200454545454
C    0.5661873181818183    -0.8176351136363637    -0.5564920454545454
O    1.2535253181818184    -1.7482521136363636    -0.9030040454545454
O    1.0536433181818183    0.3733468863636364    -0.18911604545454547
C    2.4877833181818185    0.5414958863636363    -0.18817904545454545
H    2.8849863181818183    -0.05701711363636361    -1.0092380454545455
C    3.0103743181818183    0.017014886363636388    1.1451719545454544
H    2.6290143181818184    -0.9973781136363636    1.2700839545454545
H    2.5647793181818184    0.6213728863636364    1.9394939545454546
C    2.7346373181818184    2.0235678863636366    -0.45721604545454547
H    1.9231723181818183    2.3720828863636365    -1.0974950454545456
H    2.6544743181818182    2.5825578863636367    0.47880195454545454
C    4.060457318181818    2.3306668863636366    -1.1452480454545455
H    4.128206318181818    3.3932688863636367    -1.3785320454545456
H    4.920967318181819    2.0744828863636364    -0.5298220454545455
H    4.147235318181818    1.7791168863636364    -2.0829780454545452
C    4.529157318181818    0.002277886363636388    1.3127209545454546
H    4.910828318181818    1.0251098863636365    1.3471389545454544
H    4.745812318181819    -0.4278371136363636    2.2944199545454547
C    5.292977318181818    -0.7928611136363636    0.25283095454545457
H    6.356103318181819    -0.7603821136363637    0.5026069545454546
H    5.199829318181818    -0.30302511363636364    -0.7195700454545454
C    4.841835318181818    -2.2437721136363633    0.12912195454545455
H    5.478644318181819    -2.7908341136363637    -0.5665030454545454
H    4.892125318181819    -2.7509921136363635    1.0953669545454545
H    3.816104318181818    -2.3172971136363634    -0.23438304545454547
C    -2.699906641754878    -4.306949690463169    1.069797801517803
C    -1.3061846958273609    -4.275623429993552    0.9520729228039632
C    -0.7159329068799736    -4.551089723857128    -0.29785788050184303
C    -1.4794332096240332    -4.792781573280432    -1.4381599202656516
C    -2.8538074547367387    -4.804428018287253    -1.2997077381321829
C    -3.4593481192563504    -4.577404760539229    -0.052167203282571746
H    -3.1762083232171285    -4.1122566877218265    2.024203759154722
H    -1.0105228601027147    -4.9640309498516775    -2.398360900610106
H    -3.473169341357701    -4.998465790761697    -2.1673650242280025
H    -4.539289836634243    -4.609036378119524    0.025271081339990394
C    -0.23460831721063483    -4.003286700223162    1.877017163676216
C    0.9163147313170296    -4.136631938369349    1.1659054137195843
H    1.9364580367364364    -3.9881800375776404    1.484706390709049
N    0.6459348181690127    -4.510342739742    -0.13311569133140605
H    1.297877374131497    -4.371574458644731    -0.884372798873485
C    -0.3781918279156758    -3.621053060250948    3.313615851079288
H    -0.9051616237555078    -2.6684971846998904    3.414145538326919
H    -0.945478016546192    -4.369394466378063    3.871374286898827
H    0.5965985685690296    -3.5163011973117775    3.7920181847449994
C    -1.5544311115722562    4.4803661343178245    -1.031520378089515
C    -1.7926098489467956    3.3487150468455593    -1.9959279805564536
C    -3.0644762155023635    3.0318880149457224    -2.4615398388165044
C    -3.2763348114886957    1.963977943345591    -3.319594620666383
C    -2.202907671000422    1.190628849296877    -3.7325425011805
O    -2.452101874946039    0.14520795922787416    -4.576579212806806
C    -0.9230403937664757    1.494508930702599    -3.290316413483943
C    -0.7310139863774026    2.5651765959119857    -2.434615611129688
H    -2.4430370200750198    5.1007617812814185    -0.9194859902338555
H    -0.7371031621140891    5.122080247466398    -1.3659538718613595
H    -1.2863812889672308    4.102281140492442    -0.04114287084980621
H    -3.917179608824994    3.6190448736543477    -2.13839094622139
H    -4.267978123284179    1.7219010246335484    -3.6750474053199382
H    -1.6255392910221327    -0.31742524652377446    -4.751629178517445
H    -0.081598221159498    0.8891175283002336    -3.6112105082227957
H    0.26933936522822727    2.7898175304949477    -2.089154501283218
C    -4.292432460838818    -2.9090302140371906    4.310712348082198
C    -4.783058401449417    -1.9882053075826573    3.394030992082555
C    -4.337922887393539    -0.6771172005322432    3.4195739130392298
C    -3.3858137699550976    -0.26104874475219964    4.3462767672853415
C    -2.9087848264651286    -1.1882939087295497    5.265212873107461
C    -3.359111797277515    -2.50288863419171    5.252145706170048
H    -4.633878085161529    -3.9355023112088    4.285338092844825
H    -5.516509201266228    -2.2865481807220998    2.65369863612344
H    -4.7253228759082555    0.03581341295374673    2.7022787814777542
H    -2.1712985703016248    -0.8796196022899742    5.995961737281487
H    -2.9816505122570316    -3.2113380116045542    5.978899867572863
C    -2.877203723726529    1.154658265000729    4.316415355015594
H    -2.276804723671924    1.3251360089577746    3.420200914930589
H    -3.7028323242081    1.866846230452274    4.295427548638581
H    -2.2575599954547214    1.3721918598632792    5.185034138966937
N    -5.218660249607499    3.9834474963341133    2.7764373846928962
H    -4.478085591179518    4.489323419711033    3.2638859418583976
H    -5.121457729742164    2.9867117909872034    2.9887797588396894
C    -6.599402168785012    4.475537532248661    3.165751926487759
H    -6.685958037975277    5.495199278140414    2.793325638351173
H    -6.615262148074099    4.500441125732745    4.253588346855001
C    -7.673244553611355    3.5626403756362928    2.6126143810203653
H    -7.6155818489083895    3.515459271370228    1.5206872125476365
H    -7.5132849712285426    2.5431486849363214    2.978826616176221
C    -9.055932544677898    4.047013815402933    3.0453261890914907
H    -9.25416261098498    5.021377081995602    2.592232294537716
H    -9.054930636043942    4.204030662601559    4.12779901376594
C    -10.139236182953763    3.048590053446416    2.6649583965542147
H    -9.96472426521267    2.090391457415141    3.1555681393245156
H    -11.122455598022977    3.403412397839972    2.964196047624119
H    -10.156688696609418    2.8772876357155366    1.5882645469066956
H    -5.062761183541777    4.085001876610965    1.772499092276033
O    -6.625113390067254    -3.7589224174388995    0.3990322761737076
C    -7.466687201907631    -3.964734057500037    1.3085619679436657
C    -7.065232055557264    -4.989546192930536    2.3876086939972567
H    -7.888143088824324    -5.16219107999311    3.079819834415865
H    -6.7670412926101475    -5.9287631090012125    1.9192927429427546
H    -6.201898342312742    -4.608512976175139    2.936128811623874
O    -8.586640768263367    -3.4191619904955295    1.4466443706786605
C    -6.225884879526323    2.162307528109943    -2.8342294588424095
C    -7.384276105973484    2.248464954120369    -3.818342277266205
C    -7.00491052067343    2.0388637126584284    -5.313780953841815
O    -5.856920953268391    1.5957634507771903    -5.53888137725121
O    -7.9101620706457485    2.3270596756588082    -6.128632254738826
H    -5.6972707864066265    1.212200091927253    -2.930893529520732
H    -5.49355353587621    2.9450289112348242    -3.0391275425099598
H    -6.565228353769579    2.281667468034746    -1.7996571733969262
H    -8.150537930997865    1.5022518209729898    -3.579660033477044
H    -7.884428877057636    3.2166266961485657    -3.737849541356755
C    2.2303431589108786    5.8125270930328234    0.8592848841711704
H    2.6275400070790234    6.749117998936915    1.2596765005058443
H    1.3633979146433484    6.054860969887418    0.24209736193941983
C    1.8621733678388062    4.865325676470153    1.99639144656711
H    1.3755905053552573    3.9852569442569608    1.563102873501333
C    3.1119883889489715    4.404746208178509    2.7399634920868303
C    0.8775684566989626    5.52746551338338    2.9533914355262914
H    3.6191613756213363    5.2621982177841495    3.1890285503938833
H    2.8640591010501146    3.70610780877315    3.5407877777145207
H    3.8237267907430033    3.9196015421010055    2.068101168826554
H    0.016879920738527773    5.933303949508157    2.4184198943670374
H    0.512586827936891    4.818768800713202    3.6982107556849164
H    1.3644140212192928    6.353045374375529    3.4787778775186218
H    2.9910568567290183    5.371217749126471    0.21220228277439318
O    -0.33100792628676795    2.975750332002553    1.0276256443056302
H    0.2605090682152773    2.5663402983066455    0.3854575035615647
C    -0.031191974569959494    2.423647196892657    2.299969684756988
H    0.9737875791574475    2.6996034573605066    2.6350118166695182
H    -0.7532287090462898    2.829819802248377    3.0054356530421984
H    -0.11390933506358399    1.3325909121891801    2.300952932219438
