165
placed: tryptophan tyrosine phenylalanine arginine lysine aspartic glutamic leucine serine
C    -5.945350681818182    0.23278688636363637    0.16006995454545458
C    -5.172542681818181    1.3434288863636366    0.4925409545454545
C    -3.7998686818181815    1.2793748863636365    0.39736195454545453
C    -3.1473386818181814    0.11847288636363638    -0.02927704545454544
C    -3.9371006818181815    -0.9809231136363636    -0.35633604545454545
C    -5.3173046818181815    -0.9356211136363636    -0.26665404545454546
H    -5.670811681818182    2.2442728863636363    0.8226839545454546
H    -3.2111576818181815    2.1500078863636363    0.6591099545454546
H    -3.4746566818181814    -1.9003121136363634    -0.6895730454545455
H    -5.890931681818182    -1.8116101136363636    -0.5298930454545454
O    -7.280922681818182    0.38014688636363636    0.2814289545454545
C    -8.110493681818182    -0.7119621136363636    -0.04155404545454544
H    -7.905391681818181    -1.5729501136363635    0.6002269545454546
H    -9.130393681818182    -0.3767111136363636    0.12538195454545453
H    -7.995182681818181    -1.0053401136363636    -1.0883910454545456
C    -1.6885196818181818    0.1151798863636364    -0.11031904545454545
H    -1.2043856818181817    1.0389918863636365    0.18673795454545455
C    -0.9047716818181817    -0.8889731136363637    -0.5051070454545454
H    -1.2957356818181818    -1.8473391136363635    -0.8184200454545454
C    0.5661873181818183    -0.8176351136363637    -0.5564920454545454
O    1.2535253181818184    -1.7482521136363636    -0.9030040454545454
O    1.0536433181818183    0.3733468863636364    -0.18911604545454547
C    2.4877833181818185    0.5414958863636363    -0.18817904545454545
H    2.8849863181818183    -0.05701711363636361    -1.0092380454545455
C    3.0103743181818183    0.017014886363636388    1.1451719545454544
H    2.6290143181818184    -0.9973781136363636    1.2700839545454545
H    2.5647793181818184    0.6213728863636364    1.9394939545454546
C    2.7346373181818184    2.0235678863636366    -0.45721604545454547
H    1.9231723181818183    2.3720828863636365    -1.0974950454545456
H    2.6544743181818182    2.5825578863636367    0.47880195454545454
C    4.060457318181818    2.3306668863636366    -1.1452480454545455
H    4.128206318181818    3.3932688863636367    -1.3785320454545456
H    4.920967318181819    2.0744828863636364    -0.5298220454545455
H    4.147235318181818    1.7791168863636364    -2.0829780454545452
C    4.529157318181818    0.002277886363636388    1.3127209545454546
H    4.910828318181818    1.0251098863636365    1.3471389545454544
H    4.745812318181819    -0.4278371136363636    2.2944199545454547
C    5.292977318181818    -0.7928611136363636    0.25283095454545457
H    6.356103318181819    -0.7603821136363637    0.5026069545454546
H    5.199829318181818    -0.30302511363636364    -0.7195700454545454
C    4.841835318181818    -2.2437721136363633    0.12912195454545455
H    5.478644318181819    -2.7908341136363637    -0.5665030454545454
H    4.892125318181819    -2.7509921136363635    1.0953669545454545
H    3.816104318181818    -2.3172971136363634    -0.23438304545454547
C    -2.699906641754878    -4.306949690463169    1.069797801517803
C    -1.3061846958273609    -4.275623429993552    0.9520729228039632
C    -0.7159329068799736    -4.551089723857128    -0.29785788050184303
C    -1.4794332096240332    -4.792781573280432    -1.4381599202656516
C    -2.8538074547367387    -4.804428018287253    -1.2997077381321829
C    -3.4593481192563504    -4.577404760539229    -0.052167203282571746
H    -3.1762083232171285    -4.1122566877218265    2.024203759154722
H    -1.0105228601027147    -4.9640309498516775    -2.398360900610106
H    -3.473169341357701    -4.998465790761697    -2.1673650242280025
H    -4.539289836634243    -4.609036378119524    0.025271081339990394
C    -0.23460831721063483    -4.003286700223162    1.877017163676216
C    0.9163147313170296    -4.136631938369349    1.1659054137195843
H    1.9364580367364364    -3.9881800375776404    1.484706390709049
N    0.6459348181690127    -4.510342739742    -0.13311569133140605
H    1.297877374131497    -4.371574458644731    -0.884372798873485
C    -0.3781918279156758    -3.621053060250948    3.313615851079288
H    -0.9051616237555078    -2.6684971846998904    3.414145538326919
H    -0.945478016546192    -4.369394466378063    3.871374286898827
H    0.5965985685690296    -3.5163011973117775    3.7920181847449994
C    -3.91006063744848    4.210002130633987    -2.0558675220070493
C    -4.160870040717649    4.849921666148195    -0.8754273344605762
C    -3.1139087044728173    4.85624698631565    0.050940502197954436
C    -1.9005561189236662    4.232463143680267    -0.22837260268056195
C    -1.7346087214967694    3.583418792742352    -1.4514178046619446
C    -2.7568104141935916    3.5590004710244436    -2.3995607721151306
H    -5.108415165859218    5.326934047119998    -0.6590049612702139
H    -3.259278990094308    5.34003845742784    1.0104294377523817
H    -0.8028673113080985    3.0648662222292176    -1.655871746253088
H    -2.629533753409592    3.052441114842512    -3.347101907003402
C    -0.7871919219220699    4.218880429000499    0.7867421568570048
H    0.08758039256716585    4.761488334508181    0.4239588886851518
H    -1.1041233489720568    4.673341040619203    1.7253161677612756
H    -0.46207597336491746    3.1978667853802003    0.9985469144358384
H    -5.61845224625813    3.2769367007237875    -3.675889538693314
O    -6.124470073140765    2.5674563062058984    -4.0880228361745115
H    -6.4354767632751715    2.036471342388303    -3.3476910539396894
C    -6.60556741712676    -1.0131968480643845    -4.829898333167535
C    -5.973310284209159    -1.999058267489572    -4.088796130877295
C    -4.627375501860281    -1.876682636244854    -3.7705843044632266
C    -3.8905918917582065    -0.7717256808405599    -4.1800845851454875
C    -4.538537643093717    0.2122441437056131    -4.924201031045777
C    -5.880545350903171    0.09453517056215738    -5.2511306770407895
H    -7.6520827538322065    -1.1102727109572132    -5.089358595708391
H    -6.529633358952363    -2.8665708231662133    -3.7539013594999417
H    -4.143562771041995    -2.6550523737768166    -3.191910855719582
H    -3.980808869189589    1.0822342580137336    -5.251610625524738
H    -6.364435672384923    0.8696538378918364    -5.8333383329276
C    -2.4344230217180485    -0.6396379702673849    -3.829965816353386
H    -2.2436394110901827    0.28999294161864825    -3.2909642315971506
H    -2.1090523203706426    -1.461871103930759    -3.1934940747870857
H    -1.8110256587925357    -0.6400308294310467    -4.726360320232125
N    -6.24378405318344    1.589983286237915    4.915640955541079
H    -6.948699218887284    2.147727894662104    4.46475728553812
H    -6.5494275492059195    0.8826024454492539    5.560559976150942
C    -4.9524681506443375    1.7624719441522425    4.635113882510391
N    -4.042089032068028    0.9382447598091527    5.162619298586607
H    -3.060220799530865    1.07602891888727    4.991847750521852
H    -4.312829766354981    0.11505513819365193    5.673225811222344
N    -4.577272705135048    2.7594811934821237    3.8500452528041156
H    -3.6073748979802445    2.811050399735872    3.5806782001906208
C    -5.497438238972641    3.7204042128274817    3.234095863679229
H    -6.257087831987466    3.173127613968687    2.6699707757164886
H    -5.993057819752753    4.298356562620295    4.018114506720781
C    -4.745573142883591    4.6508272045139885    2.295238335215004
H    -4.105212432451045    4.056427898860593    1.6359996447137277
H    -4.089899425720563    5.298737766788668    2.880893445335547
C    -5.712916724938427    5.482438550482182    1.4623690884517286
H    -5.179162911408992    6.227849550980531    0.8766677789157832
H    -6.276347176312442    4.852502100522913    0.7723802843993949
H    -6.428169413965638    6.0084817389536385    2.095610995142484
N    -12.559037816530267    -3.3891198972929097    0.013611737225331369
H    -12.873828712435397    -4.313157724652616    -0.28852368360996167
H    -13.304877034211483    -2.7187392656597993    -0.183452809286727
C    -12.17733732585452    -3.358102532003027    1.4821946518627183
H    -11.430782102579268    -4.138274815912868    1.6183653905431354
H    -13.072412032266334    -3.622090606072281    2.0419078794430745
C    -11.64121932030933    -1.989544779108536    1.8417016314799117
H    -10.856260778202461    -1.7085257261411424    1.131011253495847
H    -12.435853743917221    -1.2420230284671285    1.7551874532435559
C    -11.052483090109675    -1.96989992268137    3.2501323345840074
H    -10.26773784110499    -2.726832000122308    3.3160452115768306
H    -11.820927362361575    -2.2520899055194117    3.9730806043293154
C    -10.485759014895    -0.6009427495467479    3.6038394591936695
H    -11.28201141846077    0.13380435305523966    3.723898894189575
H    -9.928684507345835    -0.6371559171118517    4.5389477100613815
H    -9.80793531293048    -0.2413536520078458    2.827477147137441
H    -11.755027295188764    -3.1250661172570897    -0.5592757179014061
O    -6.625113390067254    -3.7589224174388995    0.3990322761737076
C    -7.466687201907631    -3.964734057500037    1.3085619679436657
C    -7.065232055557264    -4.989546192930536    2.3876086939972567
H    -7.888143088824324    -5.16219107999311    3.079819834415865
H    -6.7670412926101475    -5.9287631090012125    1.9192927429427546
H    -6.201898342312742    -4.608512976175139    2.936128811623874
O    -8.586640768263367    -3.4191619904955295    1.4466443706786605
C    -9.439740182813921    0.8974072936997757    -2.309093113045998
O    -8.553565912612509    0.3128432912125516    -2.9764125155717296
O    -10.474203716020568    0.39987548386627136    -1.8067114196650906
C    -9.218257891919194    2.408052458110239    -2.061599635933126
H    -9.705361441243577    2.974466917090058    -2.8619462738895294
H    -9.663558007784424    2.7108462432488314    -1.112128582216298
H    -8.15393539091758    2.6446271702363147    -2.07632776881231
C    -0.2776839791442076    0.19434050100303804    3.2254986083398287
H    -1.3266120902308638    0.2507888082533281    2.921128775888266
H    -0.18694355520003617    -0.6108586912959061    3.9569590444805773
C    0.16874969282777205    1.5327565866933508    3.8037186780810606
H    1.2012504843926528    1.4323684630953832    4.158019435434482
C    0.14200221720463338    2.6147231868930265    2.728743642189154
C    -0.7092086886493376    1.9243415617863038    4.988456182360485
H    -0.8785035483926354    2.760928011817019    2.3594216237090997
H    0.49448284340536863    3.5734700177778427    3.1148413207837056
H    0.7669285384363292    2.337258115420811    1.8779529674760715
H    -0.6662603088636213    1.1769916948896535    5.784062945941127
H    -0.41169491409488657    2.8875655442108954    5.409736989323374
H    -1.7517850906862371    2.0091874940916243    4.666889891584809
H    0.3044134608660831    -0.07433163582216544    2.3432352790359876
O    -5.193114574263797    -2.1146401662118754    3.240057525912816
H    -5.695208393434241    -1.6259604678602426    2.58166317923923
C    -3.8151698003745826    -1.9796763570731373    2.9231151620501588
H    -3.543281516927894    -2.554782130202433    2.0326882347484903
H    -3.5370180984279695    -0.9345200944065041    2.761411613464227
H    -3.251633599771962    -2.369756083373412    3.7679623810618255
