179
placed: tyrosine phenylalanine arginine lysine aspartic glutamic isoleucine leucine serine tryptophan
C    -5.945350681818182    0.23278688636363637    0.16006995454545458
C    -5.172542681818181    1.3434288863636366    0.4925409545454545
C    -3.7998686818181815    1.2793748863636365    0.39736195454545453
C    -3.1473386818181814    0.11847288636363638    -0.02927704545454544
C    -3.9371006818181815    -0.9809231136363636    -0.35633604545454545
C    -5.3173046818181815    -0.9356211136363636    -0.26665404545454546
H    -5.670811681818182    2.2442728863636363    0.8226839545454546
H    -3.2111576818181815    2.1500078863636363    0.6591099545454546
H    -3.4746566818181814    -1.9003121136363634    -0.6895730454545455
H    -5.890931681818182    -1.8116101136363636    -0.5298930454545454
O    -7.280922681818182    0.38014688636363636    0.2814289545454545
C    -8.110493681818182    -0.7119621136363636    -0.04155404545454544
H    -7.905391681818181    -1.5729501136363635    0.6002269545454546
H    -9.130393681818182    -0.3767111136363636    0.12538195454545453
H    -7.995182681818181    -1.0053401136363636    -1.0883910454545456
C    -1.6885196818181818    0.1151798863636364    -0.11031904545454545
H    -1.2043856818181817    1.0389918863636365    0.18673795454545455
C    -0.9047716818181817    -0.8889731136363637    -0.5051070454545454
H    -1.2957356818181818    -1.8473391136363635    -0.8184200454545454
C    0.5661873181818183    -0.8176351136363637    -0.5564920454545454
O    1.2535253181818184    -1.7482521136363636    -0.9030040454545454
O    1.0536433181818183    0.3733468863636364    -0.18911604545454547
C    2.4877833181818185    0.5414958863636363    -0.18817904545454545
H    2.8849863181818183    -0.05701711363636361    -1.0092380454545455
C    3.0103743181818183    0.017014886363636388    1.1451719545454544
H    2.6290143181818184    -0.9973781136363636    1.2700839545454545
H    2.5647793181818184    0.6213728863636364    1.9394939545454546
C    2.7346373181818184    2.0235678863636366    -0.45721604545454547
H    1.9231723181818183    2.3720828863636365    -1.0974950454545456
H    2.6544743181818182    2.5825578863636367    0.47880195454545454
C    4.060457318181818    2.3306668863636366    -1.1452480454545455
H    4.128206318181818    3.3932688863636367    -1.3785320454545456
H    4.920967318181819    2.0744828863636364    -0.5298220454545455
H    4.147235318181818    1.7791168863636364    -2.0829780454545452
C    4.529157318181818    0.002277886363636388    1.3127209545454546
H    4.910828318181818    1.0251098863636365    1.3471389545454544
H    4.745812318181819    -0.4278371136363636    2.2944199545454547
C    5.292977318181818    -0.7928611136363636    0.25283095454545457
H    6.356103318181819    -0.7603821136363637    0.5026069545454546
H    5.199829318181818    -0.30302511363636364    -0.7195700454545454
C    4.841835318181818    -2.2437721136363633    0.12912195454545455
H    5.478644318181819    -2.7908341136363637    -0.5665030454545454
H    4.892125318181819    -2.7509921136363635    1.0953669545454545
H    3.816104318181818    -2.3172971136363634    -0.23438304545454547
C    -1.139697580944745    -4.403107692562788    0.7545851601640313
C    0.1720492605124639    -4.041764890516403    0.867874674062147
C    0.5211392774733715    -3.331576593574045    2.0193866990722293
C    -0.4253456219894176    -3.012451259252189    2.9876886664738196
C    -1.7504743395868687    -3.3953292772266157    2.7863356299630517
C    -2.132453652196663    -4.103962176429478    1.6489613944387609
H    0.9085722647225626    -4.263318085018024    0.10783286452700734
H    1.5510436283073112    -3.0176086138712055    2.148248357564967
H    -2.494807611770256    -3.1456016377242735    3.5342453923753983
H    -3.1616061237269717    -4.406173085635095    1.501495777787814
C    -0.035418487309516286    -2.2870043562156703    4.249008912177232
H    -0.23402622191603886    -2.9039986954404844    5.127123463557657
H    1.0260547959690327    -2.0419255054226917    4.246460350346626
H    -0.600249800108188    -1.361255151002524    4.373153954088794
H    0.5986997577846486    -3.11286699781904    -2.1452538012301137
O    0.23013558759830663    -3.783744665305772    -2.741853993208122
H    0.32271794507743284    -3.413960721472149    -3.6246720960330086
C    -2.823252246736432    4.734564589582956    -0.44806844961266656
C    -3.357488836273031    4.223037001437602    -1.6218636156377837
C    -2.5909678059778556    3.4082564706995977    -2.442281695285223
C    -1.2783298347419532    3.0897823275053957    -2.109294413621564
C    -0.7514539771559506    3.6152353138575526    -0.9315686028012068
C    -1.5115875454526302    4.432910119604858    -0.1083994763052619
H    -3.421663605692192    5.365389662368654    0.19640544490850484
H    -4.373528743923541    4.464812092122307    -1.9053568116174806
H    -3.0181719904096305    3.014226063504592    -3.357296926954916
H    0.2649434428567729    3.3744834817271068    -0.6496057529018081
H    -1.0738081629565337    4.834244463052748    0.7980407135056805
C    -0.4557587848239356    2.1925448354655592    -2.9945954971246245
H    -0.522008737899114    1.1554374690918605    -2.660352586956865
H    -0.803877235078807    2.227843139190249    -4.026610779533203
H    0.5961541326344693    2.4789558529634843    -2.98422894758169
N    -6.24378405318344    1.589983286237915    4.915640955541079
H    -6.948699218887284    2.147727894662104    4.46475728553812
H    -6.5494275492059195    0.8826024454492539    5.560559976150942
C    -4.9524681506443375    1.7624719441522425    4.635113882510391
N    -4.042089032068028    0.9382447598091527    5.162619298586607
H    -3.060220799530865    1.07602891888727    4.991847750521852
H    -4.312829766354981    0.11505513819365193    5.673225811222344
N    -4.577272705135048    2.7594811934821237    3.8500452528041156
H    -3.6073748979802445    2.811050399735872    3.5806782001906208
C    -5.497438238972641    3.7204042128274817    3.234095863679229
H    -6.257087831987466    3.173127613968687    2.6699707757164886
H    -5.993057819752753    4.298356562620295    4.018114506720781
C    -4.745573142883591    4.6508272045139885    2.295238335215004
H    -4.105212432451045    4.056427898860593    1.6359996447137277
H    -4.089899425720563    5.298737766788668    2.880893445335547
C    -5.712916724938427    5.482438550482182    1.4623690884517286
H    -5.179162911408992    6.227849550980531    0.8766677789157832
H    -6.276347176312442    4.852502100522913    0.7723802843993949
H    -6.428169413965638    6.0084817389536385    2.095610995142484
N    -12.559037816530267    -3.3891198972929097    0.013611737225331369
H    -12.873828712435397    -4.313157724652616    -0.28852368360996167
H    -13.304877034211483    -2.7187392656597993    -0.183452809286727
C    -12.17733732585452    -3.358102532003027    1.4821946518627183
H    -11.430782102579268    -4.138274815912868    1.6183653905431354
H    -13.072412032266334    -3.622090606072281    2.0419078794430745
C    -11.64121932030933    -1.989544779108536    1.8417016314799117
H    -10.856260778202461    -1.7085257261411424    1.131011253495847
H    -12.435853743917221    -1.2420230284671285    1.7551874532435559
C    -11.052483090109675    -1.96989992268137    3.2501323345840074
H    -10.26773784110499    -2.726832000122308    3.3160452115768306
H    -11.820927362361575    -2.2520899055194117    3.9730806043293154
C    -10.485759014895    -0.6009427495467479    3.6038394591936695
H    -11.28201141846077    0.13380435305523966    3.723898894189575
H    -9.928684507345835    -0.6371559171118517    4.5389477100613815
H    -9.80793531293048    -0.2413536520078458    2.827477147137441
H    -11.755027295188764    -3.1250661172570897    -0.5592757179014061
O    -6.625113390067254    -3.7589224174388995    0.3990322761737076
C    -7.466687201907631    -3.964734057500037    1.3085619679436657
C    -7.065232055557264    -4.989546192930536    2.3876086939972567
H    -7.888143088824324    -5.16219107999311    3.079819834415865
H    -6.7670412926101475    -5.9287631090012125    1.9192927429427546
H    -6.201898342312742    -4.608512976175139    2.936128811623874
O    -8.586640768263367    -3.4191619904955295    1.4466443706786605
C    0.1652028857277814    1.9508650512604155    2.4981206271886487
O    -0.8789837140648482    2.3675728078983584    1.9370787683650867
O    1.2869736277045676    2.502903360708771    2.5461625078655277
C    0.03743781568971746    0.5796280465614585    3.200559658069029
H    -0.24891726267344005    -0.1791757336480356    2.467295466353883
H    0.973313173379099    0.28538273187569113    3.6789330550582418
H    -0.7581117063304396    0.6206224375601086    3.9480911299757975
C    -4.995924315775778    0.48580313119747    -4.377054743367191
H    -5.491340691907526    -0.409200092242369    -3.9860205484094493
C    -3.726411585885874    0.7586104040963164    -3.576131431442124
C    -5.977143199301696    1.6580386252370538    -4.345928088673858
H    -3.185646044245096    1.6077595734940637    -4.001905453988753
H    -3.9490702990913906    0.9968735009204928    -2.5339326767391728
H    -3.0542415194512724    -0.10248036693366674    -3.5790138702397716
H    -5.422106012669413    2.5797957797760556    -4.546239654869212
H    -6.70570182327592    1.5554546840844332    -5.153909852538696
C    -6.725955429799622    1.7811358969064008    -3.024313702112608
H    -6.04445998069694    1.7824142991814693    -2.1735293320835547
H    -7.31483712344732    2.698546888884433    -2.9784682195955465
H    -7.410776271417997    0.939110333654663    -2.898329639598629
H    -4.722384661870973    0.2628920825950149    -5.4121260438553005
C    2.2303431589108786    5.8125270930328234    0.8592848841711704
H    2.6275400070790234    6.749117998936915    1.2596765005058443
H    1.3633979146433484    6.054860969887418    0.24209736193941983
C    1.8621733678388062    4.865325676470153    1.99639144656711
H    1.3755905053552573    3.9852569442569608    1.563102873501333
C    3.1119883889489715    4.404746208178509    2.7399634920868303
C    0.8775684566989626    5.52746551338338    2.9533914355262914
H    3.6191613756213363    5.2621982177841495    3.1890285503938833
H    2.8640591010501146    3.70610780877315    3.5407877777145207
H    3.8237267907430033    3.9196015421010055    2.068101168826554
H    0.016879920738527773    5.933303949508157    2.4184198943670374
H    0.512586827936891    4.818768800713202    3.6982107556849164
H    1.3644140212192928    6.353045374375529    3.4787778775186218
H    2.9910568567290183    5.371217749126471    0.21220228277439318
O    -8.053006623138732    2.915414857941178    -1.0186112504548024
H    -7.76127663969269    2.145482370142777    -0.5157196575005724
C    -9.300718981946792    2.5988368636201398    -1.6048047474747635
H    -9.242927737923502    1.7067586107571202    -2.2383353599691724
H    -10.083106534734002    2.447815081140671    -0.8525383215284019
H    -9.591467171009429    3.4410260171728946    -2.2306176229483583
C    -6.994373722257473    -2.5191921642887256    -3.5937232463782682
C    -8.37184505994573    -2.476730749046014    -3.344622206216911
C    -8.910973837441631    -3.2969834746319884    -2.3339956760445886
C    -8.118467764206757    -4.155363751715846    -1.5735000971013178
C    -6.765374608251059    -4.178585971783629    -1.8428578119198242
C    -6.205416624011167    -3.3672456693821795    -2.8446132645736215
H    -6.554845161815094    -1.8904613027804231    -4.358902963224503
H    -8.544098673887293    -4.777273021652271    -0.796309283136288
H    -6.121177528088399    -4.830823390421954    -1.2670248619321225
H    -5.13631686569991    -3.3986015255956894    -3.0160606862183617
C    -9.458045311591022    -1.713723453842197    -3.905159915563329
C    -10.57521537314892    -2.097384825608114    -3.230883166321958
H    -11.592033846049752    -1.7600081202478195    -3.351760566178255
N    -10.259204039629685    -3.0432578712161713    -2.2759824885751434
H    -10.916910487252787    -3.4977975000290193    -1.670778720641096
C    -9.361056164220514    -0.6893702967538683    -4.989623489334983
H    -8.950460338057095    0.2501023021306926    -4.613136630524922
H    -8.71460838837216    -1.028269476204355    -5.801520769600676
H    -10.34087230590113    -0.4732601319961192    -5.415154867606811
