181
placed: tyrosine phenylalanine arginine lysine aspartic glutamic isoleucine leucine serine tryptophan
C    -5.945350681818182    0.23278688636363637    0.16006995454545458
C    -5.172542681818181    1.3434288863636366    0.4925409545454545
C    -3.7998686818181815    1.2793748863636365    0.39736195454545453
C    -3.1473386818181814    0.11847288636363638    -0.02927704545454544
C    -3.9371006818181815    -0.9809231136363636    -0.35633604545454545
C    -5.3173046818181815    -0.9356211136363636    -0.26665404545454546
H    -5.670811681818182    2.2442728863636363    0.8226839545454546
H    -3.2111576818181815    2.1500078863636363    0.6591099545454546
H    -3.4746566818181814    -1.9003121136363634    -0.6895730454545455
H    -5.890931681818182    -1.8116101136363636    -0.5298930454545454
O    -7.280922681818182    0.38014688636363636    0.2814289545454545
C    -8.110493681818182    -0.7119621136363636    -0.04155404545454544
H    -7.905391681818181    -1.5729501136363635    0.6002269545454546
H    -9.130393681818182    -0.3767111136363636    0.12538195454545453
H    -7.995182681818181    -1.0053401136363636    -1.0883910454545456
C    -1.6885196818181818    0.1151798863636364    -0.11031904545454545
H    -1.2043856818181817    1.0389918863636365    0.18673795454545455
C    -0.9047716818181817    -0.8889731136363637    -0.5051070454545454
H    -1.2957356818181818    -1.8473391136363635    -0.8184200454545454
C    0.5661873181818183    -0.8176351136363637    -0.5564920454545454
O    1.2535253181818184    -1.7482521136363636    -0.9030040454545454
O    1.0536433181818183    0.3733468863636364    -0.18911604545454547
C    2.4877833181818185    0.5414958863636363    -0.18817904545454545
H    2.8849863181818183    -0.05701711363636361    -1.0092380454545455
C    3.0103743181818183    0.017014886363636388    1.1451719545454544
H    2.6290143181818184    -0.9973781136363636    1.2700839545454545
H    2.5647793181818184    0.6213728863636364    1.9394939545454546
C    2.7346373181818184    2.0235678863636366    -0.45721604545454547
H    1.9231723181818183    2.3720828863636365    -1.0974950454545456
H    2.6544743181818182    2.5825578863636367    0.47880195454545454
C    4.060457318181818    2.3306668863636366    -1.1452480454545455
H    4.128206318181818    3.3932688863636367    -1.3785320454545456
H    4.920967318181819    2.0744828863636364    -0.5298220454545455
H    4.147235318181818    1.7791168863636364    -2.0829780454545452
C    4.529157318181818    0.002277886363636388    1.3127209545454546
H    4.910828318181818    1.0251098863636365    1.3471389545454544
H    4.745812318181819    -0.4278371136363636    2.2944199545454547
C    5.292977318181818    -0.7928611136363636    0.25283095454545457
H    6.356103318181819    -0.7603821136363637    0.5026069545454546
H    5.199829318181818    -0.30302511363636364    -0.7195700454545454
C    4.841835318181818    -2.2437721136363633    0.12912195454545455
H    5.478644318181819    -2.7908341136363637    -0.5665030454545454
H    4.892125318181819    -2.7509921136363635    1.0953669545454545
H    3.816104318181818    -2.3172971136363634    -0.23438304545454547
C    -0.7499567181142476    0.6108188569802464    3.3685390931461834
C    0.28608850364859584    -0.47139552762904563    3.5095960527466468
C    0.20114498974535844    -1.6647959033365252    2.7972280536821117
C    1.1898974941532365    -2.63099551282898    2.8845284776129727
C    2.2895286202268568    -2.41503280973542    3.7020397520214896
O    3.2480797751389385    -3.389347091333725    3.7481523351417123
C    2.387025281703811    -1.24095901942444    4.435386095004237
C    1.3887219231187933    -0.2839022918164648    4.334801037627916
H    -1.7034760320624185    0.21464916903207976    3.020874573433645
H    -0.4237431652167979    1.3683298981089012    2.6500047348125273
H    -0.9203543257898288    1.112889031976727    4.321592039443891
H    -0.6477034085006277    -1.8386735015333977    2.1453199578262434
H    1.1300062654631937    -3.544552160094748    2.308435471532833
H    3.9892752671598393    -3.0777654423964496    4.276522185518019
H    3.2442290858462544    -1.0687750792845883    5.077775703126569
H    1.476468399541447    0.634180435551227    4.907229066417442
C    -2.823252246736432    4.734564589582956    -0.44806844961266656
C    -3.357488836273031    4.223037001437602    -1.6218636156377837
C    -2.5909678059778556    3.4082564706995977    -2.442281695285223
C    -1.2783298347419532    3.0897823275053957    -2.109294413621564
C    -0.7514539771559506    3.6152353138575526    -0.9315686028012068
C    -1.5115875454526302    4.432910119604858    -0.1083994763052619
H    -3.421663605692192    5.365389662368654    0.19640544490850484
H    -4.373528743923541    4.464812092122307    -1.9053568116174806
H    -3.0181719904096305    3.014226063504592    -3.357296926954916
H    0.2649434428567729    3.3744834817271068    -0.6496057529018081
H    -1.0738081629565337    4.834244463052748    0.7980407135056805
C    -0.4557587848239356    2.1925448354655592    -2.9945954971246245
H    -0.522008737899114    1.1554374690918605    -2.660352586956865
H    -0.803877235078807    2.227843139190249    -4.026610779533203
H    0.5961541326344693    2.4789558529634843    -2.98422894758169
N    -6.24378405318344    1.589983286237915    4.915640955541079
H    -6.948699218887284    2.147727894662104    4.46475728553812
H    -6.5494275492059195    0.8826024454492539    5.560559976150942
C    -4.9524681506443375    1.7624719441522425    4.635113882510391
N    -4.042089032068028    0.9382447598091527    5.162619298586607
H    -3.060220799530865    1.07602891888727    4.991847750521852
H    -4.312829766354981    0.11505513819365193    5.673225811222344
N    -4.577272705135048    2.7594811934821237    3.8500452528041156
H    -3.6073748979802445    2.811050399735872    3.5806782001906208
C    -5.497438238972641    3.7204042128274817    3.234095863679229
H    -6.257087831987466    3.173127613968687    2.6699707757164886
H    -5.993057819752753    4.298356562620295    4.018114506720781
C    -4.745573142883591    4.6508272045139885    2.295238335215004
H    -4.105212432451045    4.056427898860593    1.6359996447137277
H    -4.089899425720563    5.298737766788668    2.880893445335547
C    -5.712916724938427    5.482438550482182    1.4623690884517286
H    -5.179162911408992    6.227849550980531    0.8766677789157832
H    -6.276347176312442    4.852502100522913    0.7723802843993949
H    -6.428169413965638    6.0084817389536385    2.095610995142484
N    -0.5650527296251704    -7.957591229650494    0.42436350052348104
H    0.3574690836290165    -8.389892064104892    0.49853201383944645
H    -1.220530350075545    -8.52640550277564    0.9643086136839436
C    -0.5576431827317303    -6.524496161743057    0.9264269488011756
H    0.15196584736772611    -5.9815662467528545    0.30414454894611387
H    -0.17229742566523817    -6.569021314042009    1.942851386997131
C    -1.9462671565535963    -5.923532128201903    0.8750602608211858
H    -2.3122527767902796    -5.913245023742723    -0.15674761577494356
H    -2.6376380665808745    -6.538214357573566    1.4628315375837047
C    -1.92495443888382    -4.495190061706348    1.4228137287032117
H    -1.3294481302015313    -3.8678465350890265    0.7545125981265249
H    -1.41421411228686    -4.488814409423747    2.389436994707196
C    -3.3229228760120395    -3.9162243580939875    1.5825226478602405
H    -3.9035622247527724    -4.480892105009028    2.313441363049365
H    -3.268621691234586    -2.8842144301454584    1.9238694018148716
H    -3.86744038153913    -3.923368103200468    0.6368613065430048
H    -0.8552966012246543    -8.000744536339159    -0.55391382827472
O    -6.625113390067254    -3.7589224174388995    0.3990322761737076
C    -7.466687201907631    -3.964734057500037    1.3085619679436657
C    -7.065232055557264    -4.989546192930536    2.3876086939972567
H    -7.888143088824324    -5.16219107999311    3.079819834415865
H    -6.7670412926101475    -5.9287631090012125    1.9192927429427546
H    -6.201898342312742    -4.608512976175139    2.936128811623874
O    -8.586640768263367    -3.4191619904955295    1.4466443706786605
C    -2.8393948309539403    -3.6790119371530072    -3.657866797321614
C    -2.567202896886215    -4.8979459494884745    -2.7831149781336286
C    -3.117940241835032    -4.66838517967936    -1.35847862948945
O    -2.594253334441334    -3.6984533720355817    -0.742712305181526
O    -4.025931944925141    -5.423388483116968    -0.9631296572501018
H    -3.9149389479966303    -3.494731459326161    -3.7267306832792135
H    -2.380119967580756    -2.79478266234053    -3.213696299993156
H    -2.45264288985216    -3.8018106149578927    -4.673313033039995
H    -3.025943055129019    -5.791582344668383    -3.2085834646025364
H    -1.4885019094401353    -5.061844974347673    -2.710165111039185
C    -4.995924315775778    0.48580313119747    -4.377054743367191
H    -5.491340691907526    -0.409200092242369    -3.9860205484094493
C    -3.726411585885874    0.7586104040963164    -3.576131431442124
C    -5.977143199301696    1.6580386252370538    -4.345928088673858
H    -3.185646044245096    1.6077595734940637    -4.001905453988753
H    -3.9490702990913906    0.9968735009204928    -2.5339326767391728
H    -3.0542415194512724    -0.10248036693366674    -3.5790138702397716
H    -5.422106012669413    2.5797957797760556    -4.546239654869212
H    -6.70570182327592    1.5554546840844332    -5.153909852538696
C    -6.725955429799622    1.7811358969064008    -3.024313702112608
H    -6.04445998069694    1.7824142991814693    -2.1735293320835547
H    -7.31483712344732    2.698546888884433    -2.9784682195955465
H    -7.410776271417997    0.939110333654663    -2.898329639598629
H    -4.722384661870973    0.2628920825950149    -5.4121260438553005
C    2.2303431589108786    5.8125270930328234    0.8592848841711704
H    2.6275400070790234    6.749117998936915    1.2596765005058443
H    1.3633979146433484    6.054860969887418    0.24209736193941983
C    1.8621733678388062    4.865325676470153    1.99639144656711
H    1.3755905053552573    3.9852569442569608    1.563102873501333
C    3.1119883889489715    4.404746208178509    2.7399634920868303
C    0.8775684566989626    5.52746551338338    2.9533914355262914
H    3.6191613756213363    5.2621982177841495    3.1890285503938833
H    2.8640591010501146    3.70610780877315    3.5407877777145207
H    3.8237267907430033    3.9196015421010055    2.068101168826554
H    0.016879920738527773    5.933303949508157    2.4184198943670374
H    0.512586827936891    4.818768800713202    3.6982107556849164
H    1.3644140212192928    6.353045374375529    3.4787778775186218
H    2.9910568567290183    5.371217749126471    0.21220228277439318
O    -8.053006623138732    2.915414857941178    -1.0186112504548024
H    -7.76127663969269    2.145482370142777    -0.5157196575005724
C    -9.300718981946792    2.5988368636201398    -1.6048047474747635
H    -9.242927737923502    1.7067586107571202    -2.2383353599691724
H    -10.083106534734002    2.447815081140671    -0.8525383215284019
H    -9.591467171009429    3.4410260171728946    -2.2306176229483583
C    -6.994373722257473    -2.5191921642887256    -3.5937232463782682
C    -8.37184505994573    -2.476730749046014    -3.344622206216911
C    -8.910973837441631    -3.2969834746319884    -2.3339956760445886
C    -8.118467764206757    -4.155363751715846    -1.5735000971013178
C    -6.765374608251059    -4.178585971783629    -1.8428578119198242
C    -6.205416624011167    -3.3672456693821795    -2.8446132645736215
H    -6.554845161815094    -1.8904613027804231    -4.358902963224503
H    -8.544098673887293    -4.777273021652271    -0.796309283136288
H    -6.121177528088399    -4.830823390421954    -1.2670248619321225
H    -5.13631686569991    -3.3986015255956894    -3.0160606862183617
C    -9.458045311591022    -1.713723453842197    -3.905159915563329
C    -10.57521537314892    -2.097384825608114    -3.230883166321958
H    -11.592033846049752    -1.7600081202478195    -3.351760566178255
N    -10.259204039629685    -3.0432578712161713    -2.2759824885751434
H    -10.916910487252787    -3.4977975000290193    -1.670778720641096
C    -9.361056164220514    -0.6893702967538683    -4.989623489334983
H    -8.950460338057095    0.2501023021306926    -4.613136630524922
H    -8.71460838837216    -1.028269476204355    -5.801520769600676
H    -10.34087230590113    -0.4732601319961192    -5.415154867606811
