155
Boltz complex superposed on FEGDSIWDKGRYGLEGS design by ligand
N    -6.025341165065839    6.406632380258342    2.240958750670936
C    -4.996467532256641    6.928070000329702    3.107925661910528
C    -5.426112462890472    8.19405478944409    3.837580452555839
O    -4.603000540918884    8.867082405936962    4.449889956602737
C    -3.7210490727013177    7.2063971692617805    2.309041305974214
C    -3.110245512165179    5.953709029179204    1.752960560728679
C    -2.4428116610992547    5.072747998939937    2.5883671348296233
C    -3.2135371608922902    5.6611731709185555    0.41165153573297086
C    -1.8868572967679968    3.9075838130050857    2.082258585113454
C    -2.6598377012590686    4.492697631795114    -0.10580606878362886
C    -1.9995675417360657    3.615718392602835    0.7326457743589572
N    -6.714014252719291    8.523287389137483    3.7617617401237804
C    -7.248213115991915    9.688399328389357    4.4480165188983785
C    -7.904734026404175    9.224418804437645    5.73972774335412
O    -8.302852625019334    8.070896816691654    5.87271378819808
C    -8.269270616531433    10.409767963861881    3.563695061933492
C    -7.670952053444547    10.973836724366912    2.281272570947016
C    -8.701037400774144    11.6642046301444    1.4103950881233667
O    -9.902346505373519    11.633172855896298    1.7385008003468307
O    -8.312437126191861    12.237441676598927    0.3810476656431492
N    -7.982207929680956    10.133813349859137    6.695909005285506
C    -8.598628988069237    9.791021703503162    7.959091578971522
C    -7.571431823591377    9.301406945556652    8.960517810298434
O    -6.40521169321489    9.08854802128981    8.62941735837393
N    -8.03132557043108    9.11964687595109    10.186393823855562
C    -7.155720944305853    8.657058325808377    11.252638466976904
C    -7.135197574695202    7.129621356052457    11.283801276905962
O    -7.943991043302888    6.496048030603635    11.956689299549602
C    -7.64063718745793    9.210660921886795    12.595140654253523
C    -6.700305462775049    8.87500001852988    13.739576090271012
O    -5.491060388927678    8.711898904812154    13.486606935076342
O    -7.180861120532138    8.794768847010397    14.887337096366906
N    -6.205296840285143    6.570491420632859    10.531596473038487
C    -6.085939684277482    5.1247318850844215    10.461147992710448
C    -4.644175098845724    4.762583121968634    10.140596436687872
O    -3.809633421176543    5.628895432818314    9.887689834948425
C    -7.017728502720847    4.548347668672799    9.38809122128804
O    -6.590732690829294    4.913662192939782    8.0893076453653
N    -4.349185897913422    3.487707598076301    10.121481144025367
C    -2.997375786609647    3.0373733874787625    9.829465693847867
C    -2.636229444534667    3.291780459933247    8.374989735782215
O    -1.4663193921809663    3.205046976003306    8.000376646892978
C    -2.8341039246841153    1.537191809191965    10.134634144006636
C    -3.777960112171008    0.6998067412064577    9.273720252460206
C    -3.0775980422640985    1.2804330581413472    11.611866691868638
C    -3.5253264267545705    -0.7963719774300078    9.38926512466254
N    -3.6376461596329333    3.5842477997039084    7.573172407153512
C    -3.403570533586454    3.8393085998312415    6.161635833901033
C    -3.1901874540743447    5.3208455944044415    5.880408734764163
O    -2.9788038948920375    5.703117792341275    4.731391898424522
C    -4.587898961305279    3.332820870582901    5.332102284839926
C    -4.862979307713577    1.875917171642854    5.524158338206377
C    -5.93721872726316    1.320439513542393    6.136004350971846
C    -4.02628795583607    0.7843407090662646    5.1151164979966355
N    -5.824260939908939    -0.05004919715218392    6.12390355617337
C    -4.668031036396162    -0.4065068408812911    5.502157779951348
C    -2.7993701799223745    0.7060804272852303    4.438786824876683
C    -4.118751019737984    -1.6608403897304136    5.244518377818137
C    -2.254782722939569    -0.5429647374422002    4.186257352006633
C    -2.9116933450464337    -1.7116532309699801    4.577038099432783
N    -3.2296860443579076    6.143575235010625    6.905711761548748
C    -3.02962531387514    7.577820994961927    6.7513754593369395
C    -1.53823189894453    7.848425997802767    6.583276556785134
O    -0.7722139553919357    7.755323722292438    7.5387657537153
C    -3.5771120913019305    8.318033992007788    7.974795284395864
C    -3.63533441225408    9.820575744635985    7.7800239067452015
O    -2.631621902228914    10.41179481558338    7.34818364372301
O    -4.691869670139054    10.40412885938858    8.088007118639089
N    -1.1369087129644027    8.180724756707159    5.362847865945166
C    0.26205992076971085    8.47320680041166    5.086013799330261
C    0.7555523212482721    9.702718326319456    5.832044812914677
O    1.921666633389444    9.770537207189669    6.22401491702599
C    0.4768097259315901    8.679368928117102    3.579363618836164
C    0.2609561139683281    7.436887275324517    2.738143635195605
C    0.5634252495773776    7.722707646256289    1.2845053048106578
C    0.42043878508895893    6.492827548468707    0.41116776786454245
N    0.7394549731055798    6.795116361767651    -1.001886403509527
N    -0.11100220083049084    10.661544961255622    6.0135898194608055
C    0.27553794892855965    11.885251545821813    6.701879376343373
C    0.7304042478233609    11.670736378524218    8.133678659598196
O    1.7776134913623554    12.169138028116222    8.544283423367999
N    -0.019200078213038596    10.908362352800236    8.890824142506816
C    0.32026003700224737    10.688633863275989    10.288705587683555
C    1.5425343986631508    9.790544681076742    10.468645936252523
O    2.131117317878326    9.740856127956562    11.548877098641833
C    -0.8711315744290414    10.098792049920368    11.038060803671613
C    -1.2358041451345092    8.688503299771105    10.618735984018048
C    -2.428146131175226    8.160741003232001    11.417767186960866
N    -2.1650998225082656    8.150244251653415    12.85063286437204
C    -2.8864401076167354    7.4843694764479824    13.739542146708963
N    -3.906273996949886    6.742534393328914    13.347495171690227
N    -2.5751452127524783    7.547399138850171    15.026730768352628
N    1.9271556384512931    9.078624875176377    9.42493061109407
C    3.0855853517870178    8.199656747977711    9.505030515774305
C    4.2779149186546155    8.754859757162153    8.737267239454146
O    5.277443947105643    8.059108991945974    8.56135378918712
C    2.721801978798624    6.809588163815436    8.972531939379703
C    1.8294267527192516    6.060635938534709    9.927351879853738
C    2.359156275671651    5.520854624063772    11.095371342260355
C    0.4705578026392624    5.9278721212989955    9.682387045353947
C    1.542156456417553    4.855876634408609    11.999864006859106
C    -0.3550458513357948    5.263344974970182    10.584880417980646
C    0.1837587383800381    4.731363229429956    11.744113374384632
O    -0.6289106025856235    4.077417136444301    12.640253050675799
N    4.1734898650017085    10.006255000663373    8.305822650298007
C    5.280663667863712    10.636597745378895    7.617194072441563
C    5.556201691641885    10.127364107345866    6.219023799031325
O    6.636309306383317    10.370192796890596    5.676276706997142
N    4.61611323243241    9.427525923760397    5.644945743139143
C    4.797850930001332    8.9203969513391    4.293629345616615
C    4.517532037580885    10.007555904201816    3.2661046765878767
O    4.919484680640745    9.891274402124786    2.109409567489589
C    3.8754333348483763    7.721616882082268    4.057133992163698
C    4.130186724956911    6.5501116896223985    5.008813319493956
C    3.1526119444347454    5.417363865948722    4.71627087650561
C    5.565227441629614    6.053012124495866    4.843220214436689
N    3.8442644667760155    11.052925028848733    3.6946092710060063
C    3.5501339931964417    12.201832346560359    2.8547147255298873
C    3.9091151813085445    13.4461800801106    3.6505636976282334
O    4.293594213753441    13.356175621884235    4.813840534803981
C    2.0659319226629402    12.234370957737104    2.4657672942403153
C    1.6608882302612766    11.136214740202032    1.49839402169518
C    0.22048867360779645    11.276719696791739    1.0282591071587452
O    -0.5641385492252932    12.000069335904026    1.6688362305290365
O    -0.13335688007793056    10.658002331620208    0.013602637425250919
N    3.787354041844783    14.60148024347601    3.0205369033215552
C    4.124380792382956    15.845418981006004    3.690362040796971
C    3.2473121428905007    16.13531340375649    4.89134233711146
O    3.7096682806234287    16.69536650299922    5.886825657579113
N    1.9821096995391843    15.736814848348452    4.7916552949466755
C    1.04454456583598    15.945681193786001    5.8872882885661895
C    -0.1821535249615201    15.065303267321193    5.7129396231646705
O    -0.2942465453066798    14.405536574604534    4.669404202073647
C    0.6199655519889714    17.411074034807903    5.966937807600909
O    -0.06909066544117304    17.801778714571547    4.802292009543986
C    1.676121366236853    -3.406788924660985    1.2600782887918172
C    2.883226667884398    -2.51320102502282    1.0308863690942847
C    2.4737491246859284    -1.0693713369113107    1.0091717232539636
C    3.4475777477575558    -0.20486839249071132    0.30405313324620487
C    2.835552962597089    1.046998773990432    -0.23572993043378698
C    3.5598420013879672    1.4703343904693487    -1.4967514208961017
C    5.066780420966267    1.6884493348465752    -1.3196883529282823
O    1.4805528827531873    0.7486614620103014    -0.48792123580232794
C    0.5900832177350576    1.711883106046093    -0.8057259071705873
O    0.9518513817099025    2.8201506778391447    -1.068613798953761
C    -0.8358339918868761    1.306041388266328    -0.7985317766763691
C    -1.2632869590221079    0.446799286863377    0.1199969518694104
C    -2.7075124814285005    0.07153417643870785    0.19106177177308048
C    -3.3479833211503185    -0.5492232134759103    -0.8577870743589155
C    -4.68403570641075    -0.9073595596622832    -0.7497808787950211
C    -5.387617840731882    -0.6412783184653321    0.40103590051748483
O    -6.695487909854607    -0.9631618255550629    0.5518826424661691
C    -7.36014411438514    -1.7601632852833617    -0.4201033837554169
C    -4.746401395305662    -0.0072673289203910585    1.448468459611962
C    -3.410669689901996    0.3495913409505942    1.3467436100552996
