124
Boltz complex superposed on RYGLGEFSDWKI design by ligand
N    -10.929307684193658    4.149933514612186    11.62335594924281
C    -9.630532888391304    3.587054208561301    11.251005604529356
C    -9.63421410895976    2.074405449348757    11.424489757315355
O    -10.008550912273984    1.5735490119009237    12.478959332623981
C    -8.51449722610295    4.204156785456187    12.105330565062692
C    -7.113074193449018    3.763087177451248    11.715569291792216
C    -6.0746616105607965    4.277144641023697    12.718550994738422
N    -4.713951175031584    3.993057708549123    12.299174275857789
C    -3.7015034592592806    3.7109092528796728    13.113071948965896
N    -3.8781182019528107    3.633365646139848    14.412950543265023
N    -2.492020062180357    3.4926872625987793    12.606525896421536
N    -9.196113343183917    1.3380504452063295    10.39128433233878
C    -9.132827809820256    -0.11064068802433535    10.436361842981324
C    -7.715779203943762    -0.5797041270320351    10.126437600512697
O    -7.128400076000463    -0.18251950302276398    9.12805746373754
C    -10.099058622949226    -0.7400925257959061    9.422599309008934
C    -11.551338314671149    -0.4261988573979911    9.688125457159687
C    -12.144048531421237    0.7097096262236509    9.138296441195228
C    -12.321470387408894    -1.2626105226802977    10.486535849514611
C    -13.480558245600326    1.0018187994902332    9.39224395939228
C    -13.660675642321031    -0.9757416275842807    10.739896132791417
C    -14.235894743998891    0.15898157154436454    10.194199887592525
O    -15.557614500328217    0.44529712876144245    10.44378973899723
N    -7.197858945879436    -1.437877515648184    10.976022844239102
C    -5.873516765299881    -2.004357208499145    10.7814037577515
C    -5.965306446601137    -3.3324823229141938    10.059977432915327
O    -7.022082904992551    -3.9577108330040427    10.025519165975048
N    -4.836486831054532    -3.7630894601836955    9.483829011247979
C    -4.813137660801998    -5.028179558695754    8.758646979689509
C    -5.13498341598097    -6.214639657066563    9.666258530380226
O    -5.744892455153379    -7.18969804216676    9.233674291553168
C    -3.4467183642176815    -5.241550320960859    8.092836566934928
C    -3.087840274290186    -4.270133680926047    6.9625074601109604
C    -1.6704647826929406    -4.555916423038089    6.46804979657404
C    -4.086014384989239    -4.408137014783076    5.81053106236034
N    -4.729453145697894    -6.106381623640488    10.924720864851485
C    -4.980200095635022    -7.168144017508423    11.884747921691583
C    -6.449754416802914    -7.375507200454511    12.190692079496955
O    -6.858454071704455    -8.443597421117865    12.640214282293066
N    -7.257646533057276    -6.35590319419687    11.925630169903332
C    -8.69112998146216    -6.435266635561052    12.17753605892555
C    -9.40918606385732    -7.290971118310635    11.133658662083572
O    -10.585411233681773    -7.626233086112262    11.296604400650775
C    -9.296754698985687    -5.025650407382921    12.205270522709917
C    -8.742304902568906    -4.162806036964082    13.33112262658054
C    -9.354469073907214    -2.780956444933348    13.37789080416076
O    -10.595719107291048    -2.6645424736251004    13.3870209360806
O    -8.591661562156384    -1.801619966000466    13.415426052233068
N    -8.697828711541035    -7.658147197767402    10.066669620068462
C    -9.2600600724671    -8.483377966423053    9.006090180584916
C    -8.659578841361803    -9.88673245354835    9.019495491307135
O    -8.878834286247097    -10.669425841499553    8.092476467961003
C    -9.007009842945935    -7.829939606531892    7.636142402287496
C    -9.640365466004624    -6.471389595203378    7.490097293984498
C    -10.983800863048064    -6.350895369690587    7.165236802713535
C    -8.887104469929984    -5.314862688712685    7.684844569333108
C    -11.57134945962835    -5.094669187371672    7.0414063504290665
C    -9.469939365781576    -4.054328510775548    7.56459774638127
C    -10.813357590764342    -3.944131352685073    7.24321816125966
N    -7.905996690159994    -10.209934205050505    10.051662479209767
C    -7.2415643445164735    -11.505425143524121    10.17134496161803
C    -8.191299481666979    -12.693832296218204    10.171048841294304
O    -7.851745877580539    -13.76984953660909    9.682313915968223
C    -6.3816611161423085    -11.545734454588693    11.440367798281414
O    -5.362210668693075    -10.567363689221011    11.394124514775429
N    -9.392703589193205    -12.519367423838148    10.697158641264348
C    -10.37002368201902    -13.597191185668539    10.759458325795888
C    -10.868525086794207    -14.025847157981332    9.378335208641687
O    -11.455869117383807    -15.097173208742237    9.227787751699363
C    -11.57455159785522    -13.183540358738869    11.615707920804088
C    -11.228720373734522    -13.002406011049006    13.082166318955956
O    -10.209399518350793    -13.564056547566583    13.540079244422468
O    -11.983515886506883    -12.295791954633522    13.779702383023444
N    -10.64321621635994    -13.192768988972102    8.385062395501278
C    -11.08292213600314    -13.491676938612969    7.024955644370243
C    -9.946493237623578    -13.939949750777465    6.107425478543556
O    -10.166634622961638    -14.206718759947066    4.925246610221122
C    -11.75955772993806    -12.258238035911884    6.415893854381833
C    -12.90329639612088    -11.752212944943413    7.234328194930108
C    -12.893451824912432    -10.734154930707106    8.13246052792283
C    -14.247459144689973    -12.265895939834017    7.225896859365728
N    -14.134270203532822    -10.578339367063318    8.692007608251409
C    -14.986122591596585    -11.501395651079658    8.156609280846467
C    -14.884960216902638    -13.292071597165311    6.508136076285191
C    -16.340789362056068    -11.735290692657905    8.384650794474988
C    -16.232852902961817    -13.513632888450488    6.740874853398527
C    -16.949099476929007    -12.748739353606634    7.667989544326426
N    -8.759074591660642    -14.020024025484467    6.670343375620643
C    -7.595223195910384    -14.424674714239604    5.890229050537345
C    -7.484989613096089    -15.946262291519716    5.7848380993756745
O    -7.621859622493278    -16.653994376639915    6.775045360013075
C    -6.3226060621346125    -13.84354741229578    6.517161221873155
C    -5.058757407119511    -14.118775074885786    5.727802139476707
C    -3.8508816950213296    -13.428767686778547    6.358215712284855
C    -2.5871273535079915    -13.677407689928295    5.553952534127429
N    -1.418515906962873    -12.957689482057287    6.128540862291748
N    -7.224308047943508    -16.424744411208486    4.5707594643492016
C    -7.054217969268303    -17.85611246796413    4.317675139200787
C    -5.573062527722209    -18.17159812512414    4.202840479342748
O    -4.869008332025602    -17.52145722769399    3.4319161017863484
C    -7.792602312977315    -18.28296936492499    3.027469091050974
C    -9.297723621402758    -18.02733584323842    3.1818838381245627
C    -7.522105399552833    -19.75244714348084    2.7323680723160537
C    -10.098685554766552    -18.307884971668994    1.9199290667722053
C    4.13051128464236    -3.601807116426364    1.621632877896909
C    4.490781099812409    -2.5847494054240028    0.5444914119473445
C    3.5951006325108477    -1.360976972600671    0.6004511595890296
C    3.9143489068495985    -0.37016499869780084    -0.45439361216766017
C    3.017621403195877    0.8348571776375362    -0.4206507161596278
C    3.43509685608916    1.7723127239875431    -1.5283674089331747
C    2.801644525257961    3.1468222904513086    -1.4907199818747916
O    1.6857460039325662    0.3793905493921912    -0.5839447867562377
C    0.6596210048994031    0.9448446647700885    0.07221063169383513
O    0.8195884992739    1.9197805860598072    0.7546981049287007
C    -0.6602228768478318    0.28340967830257835    -0.11790124823773596
C    -1.778788947837759    0.9402228136190631    0.3065382107029766
C    -3.1338323298149016    0.35623955530518714    0.17712041606462137
C    -3.3195124174108708    -1.0000781324539343    0.03524774095731864
C    -4.604185385960521    -1.521348293695807    -0.08445365158555163
C    -5.710866699528795    -0.693668253980837    -0.04608686834503395
O    -6.9512718719383795    -1.2528996643636834    -0.17296518840311137
C    -8.108798307857464    -0.4167186414817525    -0.12127055018415867
C    -5.518479053601062    0.6692190617824361    0.1052328353487102
C    -4.237737962030133    1.1930731050897991    0.22587571442672072
