168
Boltz complex superposed on RYGLSGIKWDKSFEGDGGE design by ligand
N    -1.8877964346492222    -5.306613598299249    -6.598878214045591
C    -0.996602155929537    -6.366892448071483    -6.142410604238533
C    0.38574014730509676    -5.8395764027852906    -5.767294098907596
O    1.0634936263878796    -6.431272076748054    -4.923089685329383
C    -0.8556605916210795    -7.454041058554774    -7.2116217397372875
C    -0.022055906285571858    -8.633146085518115    -6.748681468345321
C    0.07847761399108988    -9.705950083718784    -7.8172957990303615
N    0.8526805524601855    -10.84835779906288    -7.379971959652607
C    1.1939059059300474    -11.878025924712988    -8.148977402396389
N    0.845160867380442    -11.910920277629419    -9.42424984863415
N    1.891309150293497    -12.879435212941582    -7.631382746801073
N    0.8210497197631712    -4.738342069479878    -6.388738269107747
C    2.135643078861982    -4.187962753184424    -6.116025760763422
C    2.0418197302334047    -2.7413954428626566    -5.665439599346352
O    1.1712728622823292    -1.9932555285881222    -6.102355772507595
C    3.0240379667857797    -4.269002944421364    -7.359535383168952
C    3.2458967403755232    -5.688483286756476    -7.822731470053814
C    2.367864534872277    -6.286256551221937    -8.71850157336683
C    4.315229080640003    -6.428069792064175    -7.342266749360155
C    2.558783776674215    -7.595524891908781    -9.131739945477758
C    4.515960792341535    -7.738330030251214    -7.751878473732656
C    3.6312594108809026    -8.321204758242674    -8.645441632782159
O    3.8242219283149166    -9.620721056300528    -9.050230674194525
N    2.9582635847428564    -2.365088961501091    -4.784454830058519
C    3.000656987979123    -0.9943600779281763    -4.316645055790175
C    3.753891161468451    -0.10816780301469153    -5.283205528534386
O    4.212665505169177    -0.5474297388656915    -6.338611658502559
N    3.877362393907328    1.1684020290397155    -4.908014009642222
C    4.5724235205214985    2.1183603220028    -5.756878456712839
C    6.035397855640172    1.7507997794907895    -5.929683993870515
O    6.648231039309222    2.084058383892725    -6.9398050356205285
C    4.455200841845178    3.5240343832089853    -5.171776884542622
C    3.0330452152439227    4.071515842527489    -5.091071177626266
C    3.0453368344887717    5.444958602492866    -4.4284367643220435
C    2.4194260034575557    4.142685106987461    -6.482966173530377
N    6.593668709239351    1.0756932575397804    -4.949798397568143
C    7.983472151096869    0.6482338199881927    -5.008307522916863
C    8.15711509392284    -0.5901737052906655    -5.874368939641698
O    9.288167559712344    -0.9991142000654105    -6.146225017493325
C    8.501094865839152    0.35175975215632116    -3.6014155462228263
O    7.786824000492677    -0.7182987806359127    -3.016311192098086
N    7.062448196810033    -1.2037437154992312    -6.286885508446008
C    7.11566092702731    -2.387293287126252    -7.123457735420054
C    7.140547588628106    -3.6912492369063132    -6.3648283802619865
O    7.2077808590121455    -4.759997288281543    -6.974110538818362
N    7.066154290680429    -3.634541422690642    -5.044552279203064
C    7.077615596951674    -4.8431290618870175    -4.240993475231451
C    5.6501078253549775    -5.340722761076819    -4.043629285071126
O    4.696133207786194    -4.560906958075533    -4.068447613458708
C    7.7478259358055634    -4.6071476910997795    -2.8704337975688077
C    6.994984454360925    -3.543633942978512    -2.075186199223931
C    9.202463096328785    -4.219839916963466    -3.0739987128133395
C    7.5313992084526555    -3.354262192995689    -0.663858822992196
N    5.5011322522846475    -6.631811395671745    -3.845555364152249
C    4.188467419907722    -7.218934238902335    -3.637192261378061
C    3.5737869746622017    -6.736801934571533    -2.3287108105911436
O    4.26660710182225    -6.568330902457725    -1.3278467857903493
C    4.286134665467055    -8.747189755736217    -3.614195937505378
C    2.950441721902503    -9.436545113681978    -3.4107120590694313
C    3.108020942351855    -10.938514715257115    -3.252006446922924
C    1.773839145258262    -11.605197392996768    -2.966874992842535
N    1.9260981705898224    -13.060687392555533    -2.697412647626167
N    2.2627573833089762    -6.523148363630804    -2.3451691100315064
C    1.526854700272052    -6.14678583429829    -1.144806104764562
C    0.30517447445263146    -7.044802037285127    -1.0423563653070467
O    -0.39912694345215094    -7.262012222721296    -2.028304197689723
C    1.0805078364546206    -4.6758289064449805    -1.193266238490096
C    0.36956081298185106    -4.238586407067433    0.06074684415828058
C    0.9216244086345906    -3.6417739684282737    1.1441411615425598
C    -1.0211149317097483    -4.39802510016294    0.37014969348333204
N    -0.038983401626488945    -3.4092408035493857    2.10711833505023
C    -1.2456136056717382    -3.8635787883138777    1.654673964231162
C    -2.111816052616703    -4.937425446723362    -0.32904587771460503
C    -2.502984711992358    -3.8533953235218017    2.2615154457853546
C    -3.360018050053145    -4.9320324737110575    0.27743334595077784
C    -3.5502198578019746    -4.393948788168328    1.5506314090115998
N    0.07099949422814733    -7.565171598248726    0.13494225478023325
C    -1.1443298477088897    -8.30696500479657    0.39213044274584663
C    -1.4765899264025535    -8.134738477474798    1.863777337586169
O    -0.7789168110337483    -7.427483509053488    2.5944533452906486
C    -1.0087048622151045    -9.787359244847094    0.002043415872297505
C    0.10386897539921724    -10.52058805884237    0.7158643508995792
O    0.23211404682525538    -10.394578630626317    1.9523798487222288
O    0.8516769841828986    -11.253766340654803    0.03383555731564947
N    -2.563058612636806    -8.773619240357307    2.293641708581349
C    -3.0193460868464808    -8.595685887049276    3.665614867670082
C    -2.0272508870512427    -9.107761299551676    4.703167606259184
O    -2.1216843668625227    -8.731118388463262    5.872201007329306
C    -4.37243715811898    -9.2855348639287    3.8627785251758504
C    -5.486287963985255    -8.723159917720645    2.9912732069198222
C    -5.823149306511246    -7.287683870002837    3.3693256084993504
C    -6.912611944556668    -6.71382669416098    2.458506141734439
N    -8.206514912224803    -7.418950481928484    2.641523861871045
N    -1.0974213680599307    -9.95714748313632    4.310074810410796
C    -0.11417165193672352    -10.503577945792504    5.238955470950665
C    1.1949163520353392    -9.722567334508202    5.232908767901543
O    2.094306861697171    -10.026344274126119    6.018969343548611
C    0.1799346566874247    -11.967459379764012    4.902185008616163
O    0.856250896572849    -12.088801388540999    3.666682692198583
N    1.3067918137974353    -8.72265205561983    4.378171181269769
C    2.5397613092562765    -7.9518578389036705    4.267879299225401
C    2.603167955770257    -6.8730667808877675    5.339272807383249
O    1.7044294947608702    -6.040065312050634    5.4452818268941225
C    2.6346145756412405    -7.313784990043944    2.8819696327593154
C    3.8806295568637625    -6.4941870245535505    2.6861152857739983
C    5.100343830056371    -7.110284238817968    2.4663558726744648
C    3.8248976966910315    -5.108266777311858    2.7134423757620207
C    6.254631876295461    -6.356079704498027    2.285569078851501
C    4.973857021401354    -4.348307832921864    2.532563431982358
C    6.184765589524778    -4.973976930396235    2.321110143734374
N    3.659638519923516    -6.896394599176318    6.134905604640622
C    3.822139855826592    -5.920203592723129    7.20062277117667
C    4.933847246633439    -4.921435038206907    6.911029804696116
O    4.872296941953184    -3.7709264901000874    7.346199933871943
C    4.117151407783814    -6.625927162652193    8.52764536301841
C    2.997938199863217    -7.5281739294169645    9.008711633378953
C    3.3492750216962337    -8.257096763676124    10.291622880784583
O    4.549841890642961    -8.449796657962562    10.569749615259079
O    2.4207463969743577    -8.636023630719418    11.026271007920869
N    5.973820215111157    -5.352527469501327    6.200390575187705
C    7.081404119303997    -4.462397895128271    5.924663817691466
C    8.087577694541523    -4.486680765956786    7.057674784486609
O    7.83116405074261    -5.014146494911422    8.138872272206646
N    9.239790579193967    -3.8956171153621573    6.809160493576323
C    10.279404542848244    -3.8472228460208875    7.8174112234396675
C    9.774932711639657    -3.1148585504812787    9.053520158257236
O    9.156153016653908    -2.060639873140323    8.956629772672137
C    11.525856762473992    -3.1440172555052674    7.274059411758117
C    12.27941962011343    -4.001047136628124    6.275721437999317
O    12.164966544097025    -5.237028418420826    6.33406151811972
O    13.0025385385607    -3.4255103302296557    5.438630928935749
N    10.058379373580937    -3.711699767895945    10.217246788024436
C    9.635206666912786    -3.116207462369223    11.46378163282005
C    8.219545739226177    -3.457304168524026    11.864777394109153
O    7.793615622092321    -3.1287350722415948    12.972259208897317
N    7.486047936175601    -4.11381121572354    10.995467934654492
C    6.117371394115482    -4.465406431246085    11.31609214184417
C    6.042545336301495    -5.594761589522271    12.319710950230595
O    6.89862513602662    -6.4744143697396375    12.354177859846171
N    4.980179011829617    -5.5558300201455895    13.122217236333068
C    4.762071087991325    -6.562655725543834    14.143637265071625
C    3.4128121724028913    -7.229449861841334    13.977416229987632
O    3.173676952835    -8.258820963575525    14.614272298716473
C    4.851203725846554    -5.940555520225111    15.535085339565017
C    6.243930803846993    -5.422813488843911    15.875896078459238
C    6.331923296140941    -4.842232114228598    17.27597943320984
O    5.282653700118651    -4.540276737807531    17.871318232645617
O    7.455050070091501    -4.696736264502023    17.782834396634044
C    6.60508423638019    -0.13843012535951926    2.2467965621706125
C    5.211167865804302    -0.7501500639898353    2.0884589759105427
C    4.504850641068116    -0.16234365498711512    0.8899442596987226
C    3.10513938858633    -0.6856065298358547    0.7009949451169999
C    2.406593909055157    -0.09512609681836093    -0.4934246554631463
C    2.645556555590856    1.413243259119438    -0.5256035962233117
C    1.8071654731256632    2.1665848460466255    -1.5135191482058015
O    1.0081512434355373    -0.3061144925347534    -0.37613333546154815
C    0.3705652006172899    -1.0819312320363341    -1.3055031210219048
O    0.9649453932793772    -1.7149859960619178    -2.1185511201680147
C    -1.095458075276353    -1.0502536754966112    -1.2039432005328417
C    -1.6069321710313922    -0.1330692385487735    -0.4299332272170957
C    -3.0727284362283314    0.02426329236824909    -0.2610865347711042
C    -3.658276506935197    -0.35826175175974306    0.9216459203540375
C    -5.016437434593234    -0.17082686276611359    1.1196252585967068
C    -5.791877093749752    0.39488670292087    0.13264536087591705
O    -7.1234704151003765    0.5917229943048921    0.29600774188389845
C    -7.706081363639971    0.343235206086161    1.580585378248458
C    -5.197468024723182    0.768159162565865    -1.0614116555724356
C    -3.834126022028655    0.5827649840555833    -1.2648497173096063
