61
fragments fixed, E = -37236.396947 eV
N    -3.4035235918766467    -1.8207216763296015    4.35203014120374
H    -2.9213849616921084    -2.393375476225526    5.03473117704139
H    -4.068549181219784    -1.2533940777722343    4.864696298919396
C    -2.451393642106849    -0.9793887070808143    3.632653213107379
H    -2.0828497238235624    -0.1345671213164953    4.223081676485012
N    0.9892702400423287    -4.502009175815592    -0.753909654643119
H    1.0975226001957368    -3.4820698028847126    -0.6823719434061016
H    1.605062693661922    -4.977629742201972    -1.39165631947001
C    -0.12826210335370025    -5.099966347289514    -0.3683003229674298
N    -0.4930403134764921    -6.265257619443223    -0.9223567674686219
H    -1.1919276696540382    -6.8467519530962475    -0.4946810801023922
H    -0.0754489688467595    -6.585157659285854    -1.7781038261894984
N    -0.9008086350193714    -4.563496668155164    0.5727012666143685
H    -1.7952962975561122    -5.000073628691646    0.7346858267255573
C    -0.46604010685584835    -3.565813026266058    1.5614591423407462
H    0.16855101619115695    -4.052827401623433    2.3063413647335502
H    0.12873064933239586    -2.8068632565168463    1.05905171573867
C    -1.6703348647425063    -2.9117518104059577    2.21866963810215
H    -2.247320411826122    -3.665987605451234    2.763302794154241
H    -2.3220749856309424    -2.5022912972641467    1.4432774634220285
C    -1.2408012741030352    -1.795854200236265    3.1628520357725365
H    -0.685012476363151    -2.181656841569932    4.018129887649265
H    -0.6089992889592396    -1.0736154882131534    2.6417394024488448
C    -3.0723701047832517    -0.3632610608070002    2.3760835696423874
O    -2.469977030941186    0.4762585470491845    1.7296468167050982
N    -4.285616483072263    -0.8386530268077605    2.0110423562907362
H    -4.6328764217403675    -1.6395982664406668    2.5132257096500394
C    -4.852137941942644    -0.4421538898197496    0.7509326342494665
H    -5.888006447484876    -0.7800764564007033    0.699000241830211
H    -4.849274148594832    0.6468169004141877    0.6792970202577325
C    -4.092947362897729    -1.0173529919954025    -0.44785697996187807
O    -3.376466099826527    -2.0064748091668183    -0.36484253571185304
N    -4.314523578694337    -0.3668638780001054    -1.6026864844193252
H    -4.839920950809384    0.4957354027603571    -1.6235337956370706
C    -3.58968194806295    -0.6689593158700227    -2.8156185526061503
H    -2.64198053199344    -1.1399661000177839    -2.5555068049660514
H    -4.149470153506488    -1.3560029414285812    -3.4584479658525646
C    -3.3970945677295314    0.643069386110742    -3.562840463120482
O    -4.260270717206405    1.5098789729741138    -3.511146410281309
N    -2.2505806797957013    0.7854562157603261    -4.249650333148809
H    -1.5770152711173981    0.038053057118194254    -4.247138304059178
C    -1.880195495733191    2.0584515667938943    -4.861963390449752
H    -2.482326300579238    2.8103676843836176    -4.3491295287074365
C    0.11718673698656328    2.1233506421937913    -3.277779586550964
H    1.1880234456274477    2.3528818093712354    -3.2308419369219066
C    -0.3949056244520471    2.3729237339291336    -4.692646892937776
C    -0.6200103389001146    2.9365361508530987    -2.2141985473546217
H    -0.3129984923677483    3.423461888302468    -4.97580505211825
H    0.1669466126745568    1.7930200438043526    -5.425894007447757
H    -1.6978622497670008    2.7847848307585132    -2.3346578687296202
H    -0.3660246962101882    2.5401154898383416    -1.2285348713186992
C    -0.2918560488108491    4.424935990755709    -2.2507577294391936
H    -0.4998928069864356    4.863370320126258    -3.2273920105781038
H    -0.8695426628321822    4.981017188310926    -1.511272865134914
H    0.7673911580791741    4.585112796283513    -2.0350606860968
H    0.01940777409248233    1.0592795929609615    -3.042916990869558
C    -2.3017397325488984    2.063460327492781    -6.34086203759612
O    -1.50368160840922    1.9744933671981346    -7.25009035400216
N    -3.641079395750148    2.1496586420994235    -6.517316335020256
H    -4.006974307623297    2.1495313247021812    -7.453925363056139
H    -4.264405221219304    2.23419887054699    -5.7300819102883285
