47
free relaxation, E = -33489.029794 eV
N    -4.521509134010817    -2.87708412850862    4.063591303823068
H    -5.382579282341818    -2.839956694903916    4.594281491506267
H    -4.787717655718503    -2.9174008062177923    3.084263803214174
C    -3.7482060789990106    -1.6603340627682932    4.2757609313824
H    -3.804772684965159    -1.3961190001862696    5.335637909691099
N    0.9258152952701816    -1.9149936043937048    0.07208307815331506
H    0.2574870680366572    -0.4086058124594072    0.4101542112447535
H    1.5330981152315877    -1.7664373558025444    -0.7263894869509238
C    0.3960864237904766    -3.0907168980885302    0.04665126907020396
N    0.6461350292280771    -4.029899457746275    -0.9432561555711251
H    -0.056034217002054194    -4.739933240261827    -1.0746936890727896
H    0.9782780957779417    -3.6489356098508194    -1.814377980038638
N    -0.42709396899259444    -3.5252698980680495    1.0317551002815313
H    -0.7287047883317044    -4.482818099961505    0.990554091626406
C    -0.6124563381282184    -2.8429657526480363    2.303536224378944
H    -0.342820176287056    -3.536740048398833    3.1058546304041355
H    0.07962623034505613    -2.0048426484233484    2.3427704756382126
C    -2.044167580480407    -2.367333751332208    2.5016984407572718
H    -2.722897609134313    -3.1955727283475843    2.2784813114547555
H    -2.2611626459828225    -1.565025403209731    1.7952635310075717
C    -2.271488104389422    -1.8990444399823116    3.932548368521983
H    -1.9207300358963302    -2.669350906489338    4.624938109058558
H    -1.6891250087305731    -0.9927617263818634    4.114510521972207
C    -4.285488575202812    -0.4981000763601621    3.4448690463680705
O    -4.704859707477003    -0.6574172707245415    2.3148284796973524
N    -4.232144220514869    0.735748409076074    4.032994907995064
H    -4.037713620350616    0.7853653714982702    5.018081860057833
C    -4.719251356808245    1.9061858650903762    3.3386490829037534
H    -5.408091403286961    1.589416186608599    2.5585653869494003
H    -5.262553310995769    2.5524135041742917    4.03025717377312
C    -3.653859119437727    2.769680535616785    2.6691928488860492
O    -3.992237105751428    3.565971778491595    1.8020873708365268
N    -2.4090159366832307    2.6331521564305937    3.1616937380300767
H    -2.2702468296079137    1.8081601001385044    3.72463558243716
C    -1.1574086807286261    3.1742643444156653    2.629361507234839
H    -0.39589396341320515    2.861447972150957    3.3406070966148302
C    -0.44495581255547095    1.0883515122320293    1.4378349628515308
O    -0.043668572731242604    0.554271940221512    0.30585773787108134
O    -0.518462721437461    0.491587170445721    2.494704939744373
C    -0.7942756197051182    2.553054938684971    1.28481023558162
H    0.07529029985551564    3.062962097563652    0.8673116059410271
H    -1.6096372915202521    2.6533908560569928    0.5662868002693271
C    -0.9824270730251423    4.697755094256814    2.5810145468427605
O    0.14327355107722425    5.143329717747699    2.7156039033878416
N    -2.072203388556288    5.4606187534750354    2.377090071119188
H    -1.9156568481391065    6.4474490576318315    2.262294481491643
H    -2.9361708742046733    5.030580183881308    2.064314150267498
