61
condensed pair, closure 0.000 A, charge 0
N    0.7744153986414988    -1.4554973771487005    1.8019088987489207
H    1.1532078094710518    -0.8665261376896204    1.0740839276274499
H    1.4879744412651064    -1.636361397956268    2.493444652464808
C    -0.35554593013996527    -0.7838825786372172    2.432690126972152
H    -0.9623623797298647    -0.2925840918205438    1.6720985194988929
N    0.9892702400423287    -4.502009175815592    -0.753909654643119
H    1.0975226001957368    -3.4820698028847126    -0.6823719434061016
H    1.605062693661922    -4.977629742201972    -1.39165631947001
C    -0.12826210335370025    -5.099966347289514    -0.3683003229674298
N    -0.4930403134764921    -6.265257619443223    -0.9223567674686219
H    -1.1919276696540382    -6.8467519530962475    -0.4946810801023922
H    -0.0754489688467595    -6.585157659285854    -1.7781038261894984
N    -0.9008086350193714    -4.563496668155164    0.5727012666143685
H    -1.7952962975561122    -5.000073628691646    0.7346858267255573
C    -0.46604010685584835    -3.565813026266058    1.5614591423407462
H    0.16855101619115695    -4.052827401623433    2.3063413647335502
H    0.12873064933239586    -2.8068632565168463    1.05905171573867
C    -1.6703348647425063    -2.9117518104059577    2.21866963810215
H    -2.247320411826122    -3.665987605451234    2.763302794154241
H    -2.3220749856309424    -2.5022912972641467    1.4432774634220285
C    -1.2408012741030352    -1.795854200236265    3.1628520357725365
H    -2.10926014204615    -1.2599788861930645    3.542820834768217
H    -0.685012476363151    -2.181656841569932    4.018129887649265
C    0.1852736168237441    0.25508792143101444    3.4092552899848085
O    0.4056822052848445    1.4168388159440208    3.067033266685877
N    0.4050951140804615    -0.16504968269688874    4.65078817434248
H    0.2096229809630849    -1.1275564996169585    4.886311575636148
C    0.9211488393048257    0.7276184533462717    5.681611220056577
H    1.7216830479799037    0.20750665504119314    6.207661310831994
H    1.2970966512807092    1.62592276046242    5.191904558383363
C    -0.170208168512479    1.1122485110265328    6.674901006683289
O    -0.557730557446158    2.274167006095733    6.797916489006689
N    -0.6791302224572062    0.1216780669981884    7.400166157111853
H    -0.3301928626162364    -0.8164710600244772    7.265188624263515
C    -1.7281664453692538    0.3542894808380087    8.38565026818106
H    -1.9553357556110735    -0.5970622296570695    8.866715780790667
H    -1.3547555937163505    1.0773527149003592    9.110801214822619
C    -2.990306844766347    0.9027827209005062    7.728549227384829
O    -3.9556459782427593    0.18316306890348044    7.472367819318807
N    -2.988765026394393    2.201877692239933    7.448208580605377
H    -2.1740573635800255    2.753463306245794    7.676473195851211
C    -4.1328081561113965    2.851367473374969    6.81964486740799
H    -4.976193760910257    2.162110276420771    6.861180852588339
H    -4.348876143708316    3.7641726242313296    7.37480374674427
C    -3.837449013085913    3.2020134354710046    5.365191229131061
O    -4.682996005062693    3.0718741468829016    4.480049969260749
N    -2.6152692368619155    3.6560836101102936    5.107629836270824
H    -1.9540939392723393    3.7464233079156983    5.865776236946686
C    -2.2042779710742657    4.027182347635813    3.7588763901375475
H    -2.369299340162285    5.093526588724297    3.604675523597364
C    -0.44693269586614004    3.0535825946400084    2.204385873586276
O    -1.4166488295058113    2.9891221848354497    1.4060324346122928
O    0.7172543602532868    2.6363169853465966    2.027558399499862
C    -0.714225833324586    3.7451688286999127    3.556112976462893
H    -0.3265483856778186    3.1289574968061373    4.369457756353044
H    -0.16797729802003333    4.6909312528885    3.5762011215948846
C    -3.0392627480342336    3.2284243951208698    2.7636823610461105
O    -3.622343678918826    3.767757754585501    1.8232052717944094
N    -3.1016275362644126    1.9169391906233224    2.9694934189925464
H    -3.6388848144702006    1.3327221998323147    2.344877437219739
H    -2.6117656200695203    1.5044668988390688    3.7505196103408993
