54
condensed pair, closure 0.000 A, charge 0
N    -2.446357491748674    0.3418292508972822    3.240639542399213
H    -2.463083999048795    0.36445526234992986    2.2310315553273576
H    -3.257192938789533    0.8241584132092434    3.6012008506471886
C    -2.461033213839328    -1.0429202409568479    3.6967288625886328
H    -3.354985529246065    -1.5431169476628142    3.324233879562767
N    0.9892702400423287    -4.502009175815592    -0.753909654643119
H    1.0975226001957368    -3.4820698028847126    -0.6823719434061016
H    1.605062693661922    -4.977629742201972    -1.39165631947001
C    -0.12826210335370025    -5.099966347289514    -0.3683003229674298
N    -0.4930403134764921    -6.265257619443223    -0.9223567674686219
H    -1.1919276696540382    -6.8467519530962475    -0.4946810801023922
H    -0.0754489688467595    -6.585157659285854    -1.7781038261894984
N    -0.9008086350193714    -4.563496668155164    0.5727012666143685
H    -1.7952962975561122    -5.000073628691646    0.7346858267255573
C    -0.46604010685584835    -3.565813026266058    1.5614591423407462
H    0.16855101619115695    -4.052827401623433    2.3063413647335502
H    0.12873064933239586    -2.8068632565168463    1.05905171573867
C    -1.6703348647425063    -2.9117518104059577    2.21866963810215
H    -2.247320411826122    -3.665987605451234    2.763302794154241
H    -2.3220749856309424    -2.5022912972641467    1.4432774634220285
C    -1.2408012741030352    -1.795854200236265    3.1628520357725365
H    -0.685012476363151    -2.181656841569932    4.018129887649265
H    -0.6089992889592396    -1.0736154882131534    2.6417394024488448
C    -2.4666178896265976    -1.0480274130827527    5.221710084830149
O    -1.4282657928553204    -1.1453940449278441    5.8757021812149866
N    -3.656259801745205    -0.9413814299383654    5.80447912588325
H    -4.481565557776974    -0.8637814726035908    5.227462093480851
C    -3.8007360067363942    -0.9335136937036123    7.255281912245988
H    -4.8483185191120794    -1.1215382040419115    7.490478985520063
H    -3.163880952886203    -1.7193459334309753    7.6614633143196755
C    -3.383614848588774    0.41011709268442986    7.843747076292118
O    -3.201027537488094    0.5627861539223107    9.05151983288409
N    -3.228438822042296    1.406860640061715    6.97849352874262
H    -3.3892122973174748    1.2351950878087492    5.996259937473401
C    -2.832102610409819    2.741769191219753    7.4105823707577345
H    -3.7003776920716405    3.395132411596939    7.325055270821452
H    -2.4961250913224307    2.67496449397806    8.445355891434762
C    -1.7009728384002853    3.2881427668532073    6.545916912488946
O    -1.2329584642088385    4.413055209652184    6.721688188829045
N    -1.2492323367608202    2.4807522709903784    5.591824618017966
H    -1.6636517371057022    1.5659701284417642    5.484445885058617
C    -0.17084080762501408    2.881461093184288    4.696131248884852
H    0.2907867888304821    1.9966623018622824    4.257803676097284
C    -0.44693269586614004    3.0535825946400084    2.204385873586276
O    -1.4166488295058113    2.9891221848354497    1.4060324346122928
O    0.7172543602532868    2.6363169853465966    2.027558399499862
C    -0.714225833324586    3.7451688286999127    3.556112976462893
H    -1.7754984321478224    3.9460297332024834    3.7005288995874044
H    -0.16797729802003333    4.6909312528885    3.5762011215948846
C    0.8652057543118166    3.654786852912395    5.504957429741912
O    0.8034183574782955    4.8765181078809245    5.642493091392111
N    1.8385951844459565    2.934707916932575    6.052899345697704
H    2.5555183228544642    3.388628989024199    6.600692074679832
H    1.861418716041573    1.933548526300983    5.921525980985968
