66
condensed pair, closure 0.155 A, charge 1
N    -2.5543035550883832    -1.1833837322010956    5.144946612469763
H    -3.363745722295438    -0.6813683634091489    5.4809286766396115
H    -2.641806956150677    -2.160792682002376    5.383933849892368
C    -2.461033213839328    -1.0429202409568479    3.6967288625886328
H    -2.3480955504876104    0.009405020042572376    3.436043939244077
N    0.9892702400423287    -4.502009175815592    -0.753909654643119
H    1.0975226001957368    -3.4820698028847126    -0.6823719434061016
H    1.605062693661922    -4.977629742201972    -1.39165631947001
C    -0.12826210335370025    -5.099966347289514    -0.3683003229674298
N    -0.4930403134764921    -6.265257619443223    -0.9223567674686219
H    -1.1919276696540382    -6.8467519530962475    -0.4946810801023922
H    -0.0754489688467595    -6.585157659285854    -1.7781038261894984
N    -0.9008086350193714    -4.563496668155164    0.5727012666143685
H    -1.7952962975561122    -5.000073628691646    0.7346858267255573
C    -0.46604010685584835    -3.565813026266058    1.5614591423407462
H    0.16855101619115695    -4.052827401623433    2.3063413647335502
H    0.12873064933239586    -2.8068632565168463    1.05905171573867
C    -1.6703348647425063    -2.9117518104059577    2.21866963810215
H    -2.247320411826122    -3.665987605451234    2.763302794154241
H    -2.3220749856309424    -2.5022912972641467    1.4432774634220285
C    -1.2408012741030352    -1.795854200236265    3.1628520357725365
H    -0.685012476363151    -2.181656841569932    4.018129887649265
H    -0.6089992889592396    -1.0736154882131534    2.6417394024488448
C    -3.741127232914128    -1.5919800004510967    3.075828159711721
O    -4.745392359538247    -1.8200144882473839    3.750226282353034
N    -3.710816422278707    -1.810281377070273    1.7652302947184975
H    -2.864489686953774    -1.6084380531395615    1.2523069771954558
C    -4.867764421277168    -2.3336273238212417    1.0487497662791059
H    -4.88672312001269    -3.415055759013261    1.1838538272854158
H    -5.761432437792801    -1.873356215138714    1.4701853874232733
C    -4.786841051840871    -2.011291451719976    -0.43959696544565996
O    -3.8308755916073816    -2.3636942635489273    -1.1304683695836673
N    -5.807088966555369    -1.3282868774323306    -0.9483601166495084
H    -6.570133234114789    -1.0601827293368835    -0.3433943229729376
C    -5.853288056026657    -0.9560247035571035    -2.35727832507529
H    -5.2124411295975905    -0.08542629984572958    -2.496826296546132
H    -5.491998195944278    -1.8024594322716072    -2.9413313081407475
C    -7.274494827289018    -0.6124571319168814    -2.790588418467142
O    -8.258908462987076    -1.0171390124096642    -2.17210368183045
N    -7.389811153130519    0.148701532190456    -3.8739076849111345
H    -6.546142514919355    0.4382782893066679    -4.347688784826463
C    -8.78588560073754    0.6266610646126288    -4.46223342609666
H    -8.697628829136747    1.3161435291844672    -5.301831349697325
C    -6.994373722257473    -2.5191921642887256    -3.5937232463782682
C    -8.37184505994573    -2.476730749046014    -3.344622206216911
C    -8.910973837441631    -3.2969834746319884    -2.3339956760445886
C    -8.118467764206757    -4.155363751715846    -1.5735000971013178
C    -6.765374608251059    -4.178585971783629    -1.8428578119198242
C    -6.205416624011167    -3.3672456693821795    -2.8446132645736215
H    -6.554845161815094    -1.8904613027804231    -4.358902963224503
H    -8.544098673887293    -4.777273021652271    -0.796309283136288
H    -6.121177528088399    -4.830823390421954    -1.2670248619321225
H    -5.13631686569991    -3.3986015255956894    -3.0160606862183617
C    -9.458045311591022    -1.713723453842197    -3.905159915563329
C    -10.57521537314892    -2.097384825608114    -3.230883166321958
H    -11.592033846049752    -1.7600081202478195    -3.351760566178255
N    -10.259204039629685    -3.0432578712161713    -2.2759824885751434
H    -10.916910487252787    -3.4977975000290193    -1.670778720641096
C    -9.361056164220514    -0.6893702967538683    -4.989623489334983
H    -8.71460838837216    -1.028269476204355    -5.801520769600676
H    -10.34087230590113    -0.4732601319961192    -5.415154867606811
C    -9.704080088301128    1.2235682408182167    -3.400986185345425
O    -10.809491135188797    0.7424791376408708    -3.152026967354353
N    -9.242973753421744    2.2926879047864888    -2.7602014382965647
H    -9.804037875054176    2.7342687934878915    -2.0458392261446994
H    -8.331482695575483    2.663605782532004    -2.9875865289139316
