47
condensed pair, closure 0.063 A, charge 0
N    -3.613079059201187    -1.9325086041883166    3.7815045323744694
H    -4.215188753872425    -1.6334926282083955    4.535264017682405
H    -4.124962251518133    -1.9051025714986287    2.9112605971496244
C    -2.461033213839328    -1.0429202409568479    3.6967288625886328
H    -2.2154917479590974    -0.6639761459560907    4.688802832309362
N    0.9892702400423287    -4.502009175815592    -0.753909654643119
H    1.0975226001957368    -3.4820698028847126    -0.6823719434061016
H    1.605062693661922    -4.977629742201972    -1.39165631947001
C    -0.12826210335370025    -5.099966347289514    -0.3683003229674298
N    -0.4930403134764921    -6.265257619443223    -0.9223567674686219
H    -1.1919276696540382    -6.8467519530962475    -0.4946810801023922
H    -0.0754489688467595    -6.585157659285854    -1.7781038261894984
N    -0.9008086350193714    -4.563496668155164    0.5727012666143685
H    -1.7952962975561122    -5.000073628691646    0.7346858267255573
C    -0.46604010685584835    -3.565813026266058    1.5614591423407462
H    0.16855101619115695    -4.052827401623433    2.3063413647335502
H    0.12873064933239586    -2.8068632565168463    1.05905171573867
C    -1.6703348647425063    -2.9117518104059577    2.21866963810215
H    -2.247320411826122    -3.665987605451234    2.763302794154241
H    -2.3220749856309424    -2.5022912972641467    1.4432774634220285
C    -1.2408012741030352    -1.795854200236265    3.1628520357725365
H    -0.685012476363151    -2.181656841569932    4.018129887649265
H    -0.6089992889592396    -1.0736154882131534    2.6417394024488448
C    -2.816415137842101    0.11943642527267273    2.77572089923333
O    -1.9881861017391869    0.6269321299641979    2.019516050349319
N    -4.0711432495199995    0.5533416189386626    2.835925954460406
H    -4.716303778333046    0.10636519430246505    3.4715988010419725
C    -4.540363989933523    1.6579531222138246    2.008019363353673
H    -4.39924897991876    1.3797074258215543    0.9636219838147764
H    -5.595600764316776    1.819381137670595    2.2282836269438326
C    -3.761448303521936    2.9359770549964406    2.300543175541367
O    -3.857106059047637    3.9339839385342437    1.586265320488484
N    -2.973495531410864    2.911002962408594    3.370472015989128
H    -2.924112433899347    2.0665690092671545    3.9223711086338695
C    -2.2042779710742657    4.027182347635813    3.7588763901375475
H    -2.3666600025644944    4.23639431381523    4.816213814546828
C    -0.44693269586614004    3.0535825946400084    2.204385873586276
O    -1.4166488295058113    2.9891221848354497    1.4060324346122928
O    0.7172543602532868    2.6363169853465966    2.027558399499862
C    -0.714225833324586    3.7451688286999127    3.556112976462893
H    -0.3265483856778186    3.1289574968061373    4.369457756353044
H    -0.16797729802003333    4.6909312528885    3.5762011215948846
C    -2.6390467316362383    5.227371873290872    2.9245226118472525
O    -1.9120721336065838    5.7159757006781104    2.0595745014486204
N    -3.8474257171234916    5.7158033833139745    3.184322318254611
H    -4.193178177985711    6.510431098669722    2.6655525911152713
H    -4.420004915660915    5.292368914853135    3.9005320028592867
