61
free relaxation, E = -37237.013787 eV
N    -3.421578584457672    -1.8413635452812072    4.341980026890369
H    -2.89375169982689    -2.2290872521760803    5.113734559817711
H    -4.148527916478667    -1.2624972356259039    4.744949304031894
C    -2.5579642537291543    -1.0540915197261966    3.4630249496702
H    -2.4082748395267517    -0.029373646031205167    3.8196901254163667
N    0.5900262296741073    -4.997265067282253    -0.09293991588050679
H    1.1877550453471424    -4.462949982006297    0.5101997906439464
H    0.925354137582054    -5.881854889485044    -0.427368941547828
C    -0.5991761300301749    -4.514306381718117    -0.4667407542834246
N    -1.3678205615522796    -5.224865757754492    -1.3021703112498058
H    -2.2969102822366327    -4.8975344857902545    -1.516127145226642
H    -1.0620516258100863    -6.09604604907355    -1.6954420173674871
N    -1.0375428545950625    -3.347360124152545    -0.05116840496153032
H    -1.998908268785704    -3.1027024011588957    -0.32851497972916577
C    -0.5146525321473696    -2.5409527686992424    1.0455461631857619
H    0.5753078262582639    -2.5914777908725553    1.0744980381810691
H    -0.7695675264121137    -1.511264052404151    0.8008073546421864
C    -1.138216779754729    -2.9159596349078507    2.3975537897832204
H    -0.5900803440056919    -3.746385542078948    2.843172385862272
H    -2.155276744723773    -3.2776803530916068    2.2235305513332793
C    -1.1743181218431564    -1.7093706763263394    3.347102797821212
H    -0.8660382533187999    -1.9956537458427714    4.354686547128808
H    -0.454702933688661    -0.9584990671397857    3.0180303713256054
C    -3.197296347603537    -0.8901088916194876    2.083461161310966
O    -2.6611302319856107    -0.23020751029035683    1.2022596519501794
N    -4.383166902685089    -1.504416945263196    1.8941705481670514
H    -4.7055098671479625    -2.131733276774806    2.6138143445938353
C    -5.0950881223272395    -1.340535563155204    0.6499936010299688
H    -5.972939156464641    -1.98496998444324    0.657695380998373
H    -5.4277843667578916    -0.30732259006857116    0.537137813108095
C    -4.226787656827624    -1.7300285625040022    -0.5389407875221802
O    -3.6307326368539705    -2.8143914811462123    -0.5666052036607996
N    -4.1741606022429885    -0.8507005406794698    -1.5299754398175744
H    -4.580128260653731    0.07238495373066753    -1.4262849299053162
C    -3.2152284499968866    -0.9358199573451578    -2.6021573327372125
H    -2.253141626759022    -1.2868124315569662    -2.2223950744072845
H    -3.5351244691856962    -1.6229033472646306    -3.3893370238393254
C    -3.0721505532303253    0.470449879230485    -3.1765352068658093
O    -3.8776122220098808    1.3417745113175363    -2.8845139247199194
N    -2.016079896913481    0.6648011510333579    -3.9799660221220865
H    -1.446752476052207    -0.11932910075406417    -4.255663586473961
C    -1.7621713060222965    1.9486337019784372    -4.626607985444241
H    -2.262056968822902    2.6966416809671387    -4.013844515336045
C    0.4266795419139802    2.220067327278117    -3.3488065746709172
H    1.4655576752883082    2.5241130796998754    -3.501875731238516
C    -0.27252586262591233    2.2319114254212895    -4.7071543113626895
C    -0.21373831804490304    3.1152060656604927    -2.2879731769165894
H    -0.1496790172956861    3.2013986718507526    -5.192056941814909
H    0.181999625239205    1.5048506860079514    -5.3820152447906775
H    -1.2097921835421945    2.7370192542281835    -2.0351530862173046
H    0.37381314087516937    3.032887720177888    -1.370587036889769
C    -0.3158251100040055    4.581996380593645    -2.6931008947524417
H    -0.9547819898175508    4.722114907167046    -3.5670097850958533
H    -0.7405600066164312    5.181463266275137    -1.8881408227001018
H    0.6625188033564468    5.000815092388463    -2.937125687108193
H    0.4620045096307579    1.1964123568957161    -2.96389584548441
C    -2.407018653596717    1.897035408328459    -6.015418208689763
O    -1.8314234598322654    1.4065507671337558    -6.964438570191322
N    -3.6668747434126563    2.3868499932080356    -6.065408177452449
H    -4.180291254520472    2.311359229027519    -6.927858239354803
H    -4.1367842797258945    2.687420427645648    -5.228870255041534
