47
condensed pair, closure 0.192 A, charge 0
N    -1.0534634870653306    -3.581979888109082    4.837297259722893
H    -0.5277874766692434    -3.925504248106807    5.628344506214661
H    -2.009883876302352    -3.4154801354882673    5.115932992228458
C    -0.4610330382374749    -2.337132913028569    4.362801556966248
H    0.5657082336748632    -2.5168000031181172    4.0440193471574375
N    0.9892702400423287    -4.502009175815592    -0.753909654643119
H    1.0975226001957368    -3.4820698028847126    -0.6823719434061016
H    1.605062693661922    -4.977629742201972    -1.39165631947001
C    -0.12826210335370025    -5.099966347289514    -0.3683003229674298
N    -0.4930403134764921    -6.265257619443223    -0.9223567674686219
H    -1.1919276696540382    -6.8467519530962475    -0.4946810801023922
H    -0.0754489688467595    -6.585157659285854    -1.7781038261894984
N    -0.9008086350193714    -4.563496668155164    0.5727012666143685
H    -1.7952962975561122    -5.000073628691646    0.7346858267255573
C    -0.46604010685584835    -3.565813026266058    1.5614591423407462
H    0.16855101619115695    -4.052827401623433    2.3063413647335502
H    0.12873064933239586    -2.8068632565168463    1.05905171573867
C    -1.6703348647425063    -2.9117518104059577    2.21866963810215
H    -2.247320411826122    -3.665987605451234    2.763302794154241
H    -2.3220749856309424    -2.5022912972641467    1.4432774634220285
C    -1.2408012741030352    -1.795854200236265    3.1628520357725365
H    -2.10926014204615    -1.2599788861930645    3.542820834768217
H    -0.6089992889592396    -1.0736154882131534    2.6417394024488448
C    -0.47522985385591077    -1.3295906119197678    5.507477040193995
O    0.5247092249587957    -1.1060518715835064    6.189762369237552
N    -1.628547215966297    -0.7066032605123244    5.726535987149099
H    -2.422991363985851    -0.9220326399074277    5.141259404522622
C    -1.776574116030399    0.27981594933037124    6.789940510042774
H    -2.836367191688886    0.5163094801019464    6.884858615215168
H    -1.3917390612686171    -0.15767064178843387    7.711139437103451
C    -1.0006471893325637    1.553684494469434    6.472416756395052
O    -0.5907082992026285    2.303576210487474    7.358404070416284
N    -0.7921922519569795    1.8081921367601819    5.184778065185695
H    -1.1340522130475361    1.129902511624099    4.519079220785379
C    -0.17084080762501408    2.881461093184288    4.696131248884852
H    0.7926581544384783    2.478701435201131    4.383794238583697
C    -0.44693269586614004    3.0535825946400084    2.204385873586276
O    -1.4166488295058113    2.9891221848354497    1.4060324346122928
O    0.7172543602532868    2.6363169853465966    2.027558399499862
C    -0.714225833324586    3.7451688286999127    3.556112976462893
H    -1.7754984321478224    3.9460297332024834    3.7005288995874044
H    -0.16797729802003333    4.6909312528885    3.5762011215948846
C    0.005957405880869765    3.7155241500804985    5.960530793657815
O    -0.8427689270604112    4.527994787740863    6.32784002946847
N    1.1284419222328517    3.5153486548546935    6.643318668228799
H    1.304467475259964    4.0372794510870955    7.489901947431566
H    1.8054708172986667    2.841290507096285    6.315633623274861
