64
free relaxation, E = -42377.044788 eV
N    -2.4261409570153885    0.8446984271527155    4.912294477776876
H    -1.8775598058029197    1.5406847979717853    4.424321594850251
H    -3.336293473395835    1.2520573634273293    5.091739458618584
C    -2.547991370985941    -0.37493155054419286    4.124656583182535
H    -3.2107926998755807    -0.2795021471353055    3.2557321384390208
N    1.8613179932895847    -3.711441055669838    0.23705938976687155
H    2.290028761914389    -3.2445169207908626    1.0222432979094653
H    2.472213231963866    -4.200649323284776    -0.40184187044645003
C    0.6012342780450456    -4.134453651006671    0.34785912816705594
N    0.16943710594072617    -5.114275424202862    -0.45160764010183
H    -0.8134902385104417    -5.298936611382093    -0.5450740805753631
H    0.8152789493187371    -5.530045625193371    -1.111484262571427
N    -0.21952669102901107    -3.5786980758359146    1.224500717529191
H    -1.149170552024125    -3.9623802540701636    1.3011593319227004
C    0.04341130923136946    -2.3697071222382182    2.016869191545865
H    0.8931721084042283    -2.5362627137807254    2.68608302924221
H    0.2812302980863505    -1.5447561224452646    1.3387025837720008
C    -1.2181045881092618    -2.0897825979777247    2.8169649125615948
H    -1.4067573172216903    -2.934600030838963    3.4834844070352093
H    -2.0697561117487604    -2.0343388463506016    2.129514316412156
C    -1.1582233356260045    -0.8049602876129782    3.6318722120687883
H    -0.49527349682083643    -0.9287035295659724    4.493547741962435
H    -0.7540001026458104    0.011457838511075293    3.0229731696262045
C    -3.1336457080950897    -1.508349681357347    4.962294021159044
O    -3.676416060703339    -2.4663183277437497    4.4394526377116295
N    -2.9580878892711735    -1.3751918287058034    6.297525487930784
H    -2.418042660190222    -0.5748611893277908    6.597717744248207
C    -3.1180750348186588    -2.5061274092057784    7.167816458510533
H    -3.472295888322922    -2.1853404398234604    8.147021357967253
H    -3.8620149975184312    -3.1736792862891168    6.728986240476979
C    -1.8110151119262559    -3.277921348662222    7.2827164322793845
O    -1.0289963265045141    -3.354548901303725    6.34959241831601
N    -1.568528503984917    -3.891422938618258    8.468881951922205
H    -2.1059396525658993    -3.6013616140958975    9.268559818650573
C    -0.23757490982703128    -4.399464958222079    8.696245264741659
H    -0.17237827262597905    -4.796740774122647    9.709606218071078
H    -0.021548359218428192    -5.211221626109838    8.000655174437563
C    0.7872010561710837    -3.273967068458345    8.528897058242132
O    0.5032531213562114    -2.116912738089855    8.751973995544363
N    2.038243243583268    -3.6696847178690435    8.161221557887256
H    2.142748320165926    -4.608041517507962    7.811057403053059
C    3.0077932035933514    -2.680577749266778    7.700661288124385
H    3.938844629403063    -3.22866455598041    7.531535227047229
C    3.121616296479347    -4.649117514643221    3.1213351706082926
C    4.0928930214192025    -3.703373325726369    3.3327837815982573
C    3.8895437506819186    -2.8309330666511863    4.403783119985605
C    2.750394265181798    -2.9225702492361227    5.203896162149249
C    1.7908475544872011    -3.8935087737988154    4.913493294778774
C    1.9714319676252448    -4.7862220230131545    3.8542705696377415
H    4.987825846562278    -3.6309572096381117    2.7255351495585978
H    4.6351890403369325    -2.0735419296647066    4.619437639448194
H    0.8794678874232101    -3.9415421811038645    5.497382525985405
H    1.2230611196659382    -5.539946521028826    3.642025273981151
C    2.5873315346830754    -2.0058714021867483    6.388349790732978
H    3.2045808945355634    -1.1173930542800385    6.270283290601334
H    1.552012302229612    -1.676474291576265    6.485953194771038
H    3.0369555647423185    -6.487595408384288    -1.992249849678358
O    2.5250638427253906    -5.671384581412654    -2.03322734798485
H    2.5595766718041753    -5.396147429035551    -2.9563001289190445
C    3.348828525627034    -1.6375803566766733    8.778579566127508
O    3.6744006708870067    -0.5116358277554551    8.474556865309658
N    3.384245892338775    -2.107146805378782    10.04959916724995
H    3.529066792123119    -1.4327476114152278    10.782696142666753
H    2.9348241741783783    -2.9741370095645134    10.277596332529262
