61
condensed pair, closure 0.074 A, charge 1
N    -3.657609189613547    -1.41666616305484    2.9522263979082957
H    -4.006267766790373    -2.3001064313608146    3.295840263892338
H    -4.365277976481915    -0.7061766876074208    3.0726821714133568
C    -2.461033213839328    -1.0429202409568479    3.6967288625886328
H    -2.585195423532473    -1.3047535745508632    4.747503363184817
N    0.9892702400423287    -4.502009175815592    -0.753909654643119
H    1.0975226001957368    -3.4820698028847126    -0.6823719434061016
H    1.605062693661922    -4.977629742201972    -1.39165631947001
C    -0.12826210335370025    -5.099966347289514    -0.3683003229674298
N    -0.4930403134764921    -6.265257619443223    -0.9223567674686219
H    -1.1919276696540382    -6.8467519530962475    -0.4946810801023922
H    -0.0754489688467595    -6.585157659285854    -1.7781038261894984
N    -0.9008086350193714    -4.563496668155164    0.5727012666143685
H    -1.7952962975561122    -5.000073628691646    0.7346858267255573
C    -0.46604010685584835    -3.565813026266058    1.5614591423407462
H    0.16855101619115695    -4.052827401623433    2.3063413647335502
H    0.12873064933239586    -2.8068632565168463    1.05905171573867
C    -1.6703348647425063    -2.9117518104059577    2.21866963810215
H    -2.247320411826122    -3.665987605451234    2.763302794154241
H    -2.3220749856309424    -2.5022912972641467    1.4432774634220285
C    -1.2408012741030352    -1.795854200236265    3.1628520357725365
H    -0.685012476363151    -2.181656841569932    4.018129887649265
H    -0.6089992889592396    -1.0736154882131534    2.6417394024488448
C    -2.260415856382824    0.4628306303038876    3.5622223958864505
O    -2.5616093803824156    1.2425127905228674    4.465958635138243
N    -1.7419165246361565    0.8854266830810524    2.4138269852567236
H    -1.5099692535669336    0.2092028019832619    1.700369399918547
C    -1.4992794567230276    2.3000251734194563    2.1573072698217737
H    -1.6605943872250943    2.8436607594116965    3.088187414007902
H    -0.4695399064894028    2.4088291176859764    1.8168690810169623
C    -2.4448104597316416    2.836683083540464    1.087917532703413
O    -3.559530062228814    3.277933217412749    1.3673088839765617
N    -1.9969060270821741    2.8008943672994557    -0.16281896512607763
H    -1.0752875073476669    2.430003680768067    -0.34491619939022167
C    -2.8016103591469643    3.2832204826905214    -1.2788729317280174
H    -3.715376656910837    2.6901555230627445    -1.3163576850633432
H    -3.027473719223346    4.334727179822084    -1.1016177245760725
C    -2.052895690715191    3.1425433484592937    -2.5999563088013904
O    -1.0711229205290649    3.8350232857963222    -2.8682001607472745
N    -2.520626429433966    2.2298168984235134    -3.4451778084467026
H    -3.33080232537964    1.687456012926987    -3.181436102393131
C    -1.8680692640343208    1.9758605679347065    -4.806794749786647
H    -2.323864449658522    2.591874498439511    -5.581957691487179
C    0.11718673698656328    2.1233506421937913    -3.277779586550964
H    1.1880234456274477    2.3528818093712354    -3.2308419369219066
C    -0.3949056244520471    2.3729237339291336    -4.692646892937776
C    -0.6200103389001146    2.9365361508530987    -2.2141985473546217
H    -0.3129984923677483    3.423461888302468    -4.97580505211825
H    0.1669466126745568    1.7930200438043526    -5.425894007447757
H    -1.6978622497670008    2.7847848307585132    -2.3346578687296202
H    -0.3660246962101882    2.5401154898383416    -1.2285348713186992
C    -0.2918560488108491    4.424935990755709    -2.2507577294391936
H    -0.4998928069864356    4.863370320126258    -3.2273920105781038
H    -0.8695426628321822    4.981017188310926    -1.511272865134914
H    0.7673911580791741    4.585112796283513    -2.0350606860968
H    0.01940777409248233    1.0592795929609615    -3.042916990869558
C    -1.9968107797243604    0.5025540937824802    -5.178841326654337
O    -1.0674877038602917    -0.2903287279356963    -5.026997816122048
N    -3.1693771339674637    0.12329468407111172    -5.6763264470774715
H    -3.317494138120025    -0.8397923891889303    -5.942079419591941
H    -3.9123752673510452    0.7981560208311673    -5.788647192868018
