68
condensed pair, closure 0.125 A, charge 1
N    -3.601995425225079    -1.2236921731595023    2.807183618816594
H    -4.455163652792622    -1.018070654556988    3.3071073795610237
H    -3.516196388744221    -0.59960961739793    2.017715767075271
C    -2.461033213839328    -1.0429202409568479    3.6967288625886328
H    -2.6974910777869487    -1.4412819682748808    4.68338767534283
N    0.9892702400423287    -4.502009175815592    -0.753909654643119
H    1.0975226001957368    -3.4820698028847126    -0.6823719434061016
H    1.605062693661922    -4.977629742201972    -1.39165631947001
C    -0.12826210335370025    -5.099966347289514    -0.3683003229674298
N    -0.4930403134764921    -6.265257619443223    -0.9223567674686219
H    -1.1919276696540382    -6.8467519530962475    -0.4946810801023922
H    -0.0754489688467595    -6.585157659285854    -1.7781038261894984
N    -0.9008086350193714    -4.563496668155164    0.5727012666143685
H    -1.7952962975561122    -5.000073628691646    0.7346858267255573
C    -0.46604010685584835    -3.565813026266058    1.5614591423407462
H    0.16855101619115695    -4.052827401623433    2.3063413647335502
H    0.12873064933239586    -2.8068632565168463    1.05905171573867
C    -1.6703348647425063    -2.9117518104059577    2.21866963810215
H    -2.247320411826122    -3.665987605451234    2.763302794154241
H    -2.3220749856309424    -2.5022912972641467    1.4432774634220285
C    -1.2408012741030352    -1.795854200236265    3.1628520357725365
H    -0.685012476363151    -2.181656841569932    4.018129887649265
H    -0.6089992889592396    -1.0736154882131534    2.6417394024488448
C    -2.1638506034427407    0.44911431948206526    3.8022767973563454
O    -3.020618019355894    1.2597097469129217    4.154761758819506
N    -0.9272790516108562    0.8244844524009903    3.4920687050819605
H    -0.2572515184421529    0.12419716360803756    3.2078842263522493
C    -0.5129480565910466    2.2211137187305274    3.5514026666698473
H    -0.7637192276134308    2.687611435849126    2.5987255441843757
H    -1.0507392435105216    2.697461411922072    4.371142573263906
C    0.9878650622948267    2.3412887886468714    3.7937720846058953
O    1.5820175095058229    1.5990307951164495    4.575690840304579
N    1.6178501148236955    3.292945687554244    3.1128102792509975
H    1.089311610654533    3.8785606024290322    2.4820946372324895
C    3.052275934822344    3.513417284555157    3.2527346939793476
H    3.1990746293804353    4.360650776541334    3.922619425357029
H    3.493259940259134    2.607644639246964    3.668918573965495
C    3.6976764742798567    3.8168102293536874    1.9047599669483002
O    3.0896120706935637    4.403945306035999    1.0098347841422166
N    4.953937595958831    3.4112799678409447    1.7511559267823906
H    5.413207027929514    2.9331380001122653    2.513095456898707
C    5.686261358059541    3.638804357454201    0.5111161856475435
H    5.081584402530868    3.257888726072573    -0.3119081525233943
H    5.850577522089415    4.711492825212966    0.4089415832462564
C    7.031298286768304    2.920262535205692    0.5251984471665873
O    8.060885084506346    3.4744802073732934    0.9101072646554176
N    7.028691225993841    1.6617004961383424    0.09828417350880364
H    6.151193882067505    1.2666509039077072    -0.20836584048212242
C    8.282556139983038    0.7689903295327046    0.04275991086523856
H    8.658502370885614    0.6039349766192968    -0.9669534949805869
C    9.307427260299047    1.6196649371194556    0.795682150375625
H    10.251452468690445    1.0714002149550037    0.805253267307025
C    8.816917055899216    1.9113853070008846    2.2104068155164045
H    9.58146133063538    2.5045613128865694    2.724699128733303
C    7.525899663787565    2.724841407498607    2.1788325602280625
C    8.620012201818108    0.6151640369877205    2.9915807733439923
H    6.7495257128654504    2.1786343007918925    1.6377279611911146
H    7.151974948106173    2.922069272243191    3.1849894657877273
H    7.664094146681981    3.686499830036142    1.681518260599493
H    9.526465326007312    0.005994932638091648    2.985272402733273
H    8.355902325576114    0.8172450957798114    4.031320049731619
H    7.814593007337242    0.020740080272548138    2.548926612450783
H    9.459930366236106    2.540770079992641    0.2306050171018046
C    8.083349817534595    -0.5711344503046453    0.7427652076755273
O    8.965699187021086    -1.0823650330644201    1.4323040981073105
N    6.902972806356369    -1.1556986328603147    0.5660286015211091
H    6.7093733676567995    -2.0451749589191466    1.0035798816199037
H    6.199521243332835    -0.7104734914374691    -0.005837179868853459
