68
free relaxation, E = -42896.987261 eV
N    -3.6923139322329166    -1.5667915881279744    3.738722637785523
H    -4.351932018130052    -1.0599274192891601    4.316195563706698
H    -3.9762239043082337    -1.4084228546781334    2.776021020398575
C    -2.3523934255029846    -1.0362223741487546    3.920455200712762
H    -2.2124940808608833    -0.7888614910966629    4.974305875078246
N    1.2654436895447105    -4.545196178760659    -0.4391721062216495
H    1.6127518207156595    -3.759186976426581    0.08207684991851968
H    1.8924416934171595    -5.000524084495489    -1.0784355533887737
C    -0.024729070292532386    -4.870185371489314    -0.3884340464261614
N    -0.5058712347828996    -5.7810656108310825    -1.2414112990590942
H    -1.4438486035934772    -6.132635879733902    -1.1522256596276994
H    0.04650208808479714    -6.113505944250014    -2.0122027813143926
N    -0.8211238800196179    -4.303317357186606    0.5003944478556983
H    -1.8046009612875242    -4.517627365114021    0.4459384591485322
C    -0.3995029214722688    -3.469463583791956    1.636996680135871
H    0.04208284012691864    -4.107885057772552    2.406491509822506
H    0.35526451150168625    -2.750718053437671    1.311276529415184
C    -1.5977245940735583    -2.708807319155669    2.1715106455902404
H    -2.446826737454247    -3.387387250244289    2.290546672225204
H    -1.8841616605569669    -1.9404984498111162    1.4500193359269482
C    -1.2901524166088878    -2.0790268868227884    3.526281411880861
H    -1.263129548580435    -2.857872035677667    4.290528899012985
H    -0.3065645282876657    -1.5976189923645052    3.5126993691173998
C    -2.0732466952518305    0.19964765636093545    3.069735156448061
O    -2.5378614328815114    0.3188845659999917    1.9493557022374575
N    -1.2162883768091617    1.0954968628381723    3.6274423875499506
H    -0.7571084627931222    0.7987513096066627    4.474618167487155
C    -0.4738815313197305    2.012814482263526    2.8066223970735957
H    -0.9358143525490829    2.0245865091702533    1.8185249185467232
H    -0.5100241307718241    3.026600444246454    3.21031977846802
C    0.9788990728561809    1.5580425966626612    2.6944479984409195
O    1.355976241435736    0.4863804639375685    3.130848285467135
N    1.8063077952590672    2.45826154741771    2.113141999341508
H    1.41691350888522    3.3120925298182757    1.7515314436929936
C    3.2112833124121183    2.1988518039036613    1.9283547622000479
H    3.7841766092519586    3.103099254546621    2.1431368268380253
H    3.501512311558816    1.430453823587571    2.646990086256191
C    3.520115791743325    1.6535967902576305    0.5355743601580087
O    2.867578000308769    0.7589110061191674    0.03803096845124183
N    4.596728904197703    2.2306751094696744    -0.06647659191054871
H    5.001779771729185    3.047233322499713    0.3620174681362559
C    5.047567089497969    1.8565734814851598    -1.3904889468978443
H    4.375872304273549    1.0834176276007013    -1.762621658509892
H    4.992758580041252    2.7009002041825885    -2.078062677546812
C    6.477343953798729    1.33056749582112    -1.464079594017036
O    7.020006058742781    1.2053436799958397    -2.54311206849409
N    7.057178151474542    1.013318705456385    -0.278857257715661
H    6.527008337425494    1.174696820173445    0.5597473920434048
C    8.468756401518146    0.6933828722626908    -0.165490788151282
H    8.870718017820874    0.8244653031968634    -1.1736468141076446
C    9.232461234355359    1.6458004760316745    0.7565855173138722
H    10.2558509544427    1.2728543894534508    0.7843561982419831
C    8.745630856250704    1.8322625283027179    2.2047452825539877
H    9.575600699879239    2.3358619255787234    2.7091743857453827
C    7.54128319063127    2.7697175155049765    2.3569217338928703
C    8.502257887825909    0.5162593116888008    2.9401017644104193
H    6.586494926245896    2.2652889895562125    2.170282470349642
H    7.487611035545423    3.142351058069563    3.381329514884973
H    7.61375323166617    3.633061448213721    1.690361116743487
H    9.386085259197793    -0.118817403995673    2.923286361152609
H    8.2295477158877    0.7018826884256067    3.980894035717302
H    7.686198523740795    -0.05416528925992316    2.4835604697319873
H    9.263986129100317    2.6223296141864285    0.26540121987609494
C    8.739593383404607    -0.7809674185754876    0.15307808953135252
O    9.824418272808128    -1.146477730308716    0.5496738749951258
N    7.704842717092325    -1.6420712801676707    -0.06088306876058006
H    7.938129185152096    -2.621884246180882    -0.05431790772171556
H    6.92334920882315    -1.34135736428731    -0.616154330133478
