69
fragments fixed, E = -45961.500191 eV
N    -4.350719548791771    0.07604143440756053    -0.25637157060318444
H    -5.313475829371505    0.09141792398138279    -0.5749831192467114
H    -3.8630932956024364    0.9680713410675071    -0.2520553754637508
C    -3.7357457972921866    -0.964676063301518    0.2199788133634969
H    -4.452674016659665    -1.814790278395801    0.19784919286911565
N    0.9892702400423287    -4.502009175815592    -0.753909654643119
H    1.0975226001957368    -3.4820698028847126    -0.6823719434061016
H    1.605062693661922    -4.977629742201972    -1.39165631947001
C    -0.12826210335370025    -5.099966347289514    -0.3683003229674298
N    -0.4930403134764921    -6.265257619443223    -0.9223567674686219
H    -1.1919276696540382    -6.8467519530962475    -0.4946810801023922
H    -0.0754489688467595    -6.585157659285854    -1.7781038261894984
N    -0.9008086350193714    -4.563496668155164    0.5727012666143685
H    -1.7952962975561122    -5.000073628691646    0.7346858267255573
C    -0.46604010685584835    -3.565813026266058    1.5614591423407462
H    0.16855101619115695    -4.052827401623433    2.3063413647335502
H    0.12873064933239586    -2.8068632565168463    1.05905171573867
C    -1.6703348647425063    -2.9117518104059577    2.21866963810215
H    -2.247320411826122    -3.665987605451234    2.763302794154241
H    -2.3220749856309424    -2.5022912972641467    1.4432774634220285
C    -1.2408012741030352    -1.795854200236265    3.1628520357725365
H    -0.685012476363151    -2.181656841569932    4.018129887649265
H    -0.6089992889592396    -1.0736154882131534    2.6417394024488448
C    -1.919140642178231    -0.8820474619331495    4.172419387597229
O    -2.9091750396339857    1.5573409182271034    6.634601243883025
N    -0.7539535226904012    -0.16136613829555313    4.644221288208017
H    -0.44255994783223385    0.5673550185168091    4.025654973597538
C    -0.28282393790898036    0.018202186882396297    6.004460365681174
H    -1.0851301337642174    0.06309725159142716    6.744219388305271
H    0.42868827041679675    -0.7673200956284777    6.292961951309809
C    0.35357260966921883    1.3930642813383378    6.11788354517473
O    -0.2783867532817636    2.4136933839014802    5.924425838036262
N    1.688919064094442    1.455618949197405    6.370987248056512
H    2.200232028954247    0.6428208723051174    6.667520788449732
C    2.2738725212507527    2.7805924908786706    6.482308190407408
H    1.8853217338265413    3.3134668851982023    7.349193648104836
H    3.3561627233456073    2.691929251830042    6.574994993377566
C    1.9300037536017796    3.6528763206916537    5.2758288325767255
O    1.7630833179241845    4.843538638801585    5.3897607927249584
N    1.8567863911162181    2.995457530635051    4.079642990375494
H    1.9961836060272884    1.999759799529177    4.08728410155448
C    1.1197015933622352    3.564374087652488    2.9709889460922376
H    0.7101577445412837    4.5166082289161595    3.3064441399452615
H    1.7604795451439372    3.734308117088429    2.10823331871131
C    0.026234080218481802    2.601566690500046    2.5256170746541295
O    0.21443595301165172    1.851001461790367    1.5667409938901615
N    -1.1186305426629795    2.5896586261853782    3.2358261487354585
H    -1.148788253296555    3.10076785483743    4.108287609520578
C    -2.1574064854822854    1.5800194806163832    3.004685616086362
H    -1.6840514912678584    0.7364856932111853    2.4977037770590633
C    -4.292432460838818    -2.9090302140371906    4.310712348082198
C    -4.783058401449417    -1.9882053075826573    3.394030992082555
C    -4.337922887393539    -0.6771172005322432    3.4195739130392298
C    -3.3858137699550976    -0.26104874475219964    4.3462767672853415
C    -2.9087848264651286    -1.1882939087295497    5.265212873107461
C    -3.359111797277515    -2.50288863419171    5.252145706170048
H    -4.633878085161529    -3.9355023112088    4.285338092844825
H    -5.516509201266228    -2.2865481807220998    2.65369863612344
H    -4.7253228759082555    0.03581341295374673    2.7022787814777542
H    -2.1712985703016248    -0.8796196022899742    5.995961737281487
H    -2.9816505122570316    -3.2113380116045542    5.978899867572863
C    -2.877203723726529    1.154658265000729    4.316415355015594
H    -3.7028323242081    1.866846230452274    4.295427548638581
H    -2.2575599954547214    1.3721918598632792    5.185034138966937
C    -3.120428559039901    2.166351168050555    1.9561363838220072
O    -4.290269823148276    2.40668853103546    2.1519500125041278
N    -2.5291955130682227    2.3885038728988026    0.7373467639748102
H    -2.959725101377058    3.1066238378909596    0.17603254584690275
H    -1.5269851655018527    2.257759916480614    0.6578098264362894
