53
fragments fixed, E = -36074.525326 eV
N    -3.3645169713641776    -0.5068619446369004    2.6777542406826482
H    -2.8832075947017084    -0.15110497377344087    1.8611828930999559
H    -4.05918846761965    -1.1799284176127116    2.3902094495286508
C    -2.45646849560905    -1.0160103588951748    3.6966553330060052
H    -3.040904194418141    -1.671125825388103    4.348499882487111
N    0.9892702400423287    -4.502009175815592    -0.753909654643119
H    1.0975226001957368    -3.4820698028847126    -0.6823719434061016
H    1.605062693661922    -4.977629742201972    -1.39165631947001
C    -0.12826210335370025    -5.099966347289514    -0.3683003229674298
N    -0.4930403134764921    -6.265257619443223    -0.9223567674686219
H    -1.1919276696540382    -6.8467519530962475    -0.4946810801023922
H    -0.0754489688467595    -6.585157659285854    -1.7781038261894984
N    -0.9008086350193714    -4.563496668155164    0.5727012666143685
H    -1.7952962975561122    -5.000073628691646    0.7346858267255573
C    -0.46604010685584835    -3.565813026266058    1.5614591423407462
H    0.16855101619115695    -4.052827401623433    2.3063413647335502
H    0.12873064933239586    -2.8068632565168463    1.05905171573867
C    -1.6703348647425063    -2.9117518104059577    2.21866963810215
H    -2.247320411826122    -3.665987605451234    2.763302794154241
H    -2.3220749856309424    -2.5022912972641467    1.4432774634220285
C    -1.2408012741030352    -1.795854200236265    3.1628520357725365
H    -0.685012476363151    -2.181656841569932    4.018129887649265
H    -0.6089992889592396    -1.0736154882131534    2.6417394024488448
C    -1.9522832797475804    0.10913173501757763    4.614574429452691
O    -1.1027586301834007    -0.10782844905245757    5.46238852541321
N    -2.532373055226149    1.3023018648735705    4.397948440657941
H    -3.2585896646244263    1.357610260258206    3.6965951394190717
C    -2.345805736908563    2.4583000565135773    5.247423263549114
H    -2.0714778407041186    2.1378526386288113    6.252472328985388
H    -1.5591575820937238    3.120804021785937    4.8760125581302205
C    -3.667525580473049    3.2057350176243817    5.19646942784525
O    -4.21502991826803    3.395669917179337    4.119592848984543
N    -4.2170771990627    3.5745823665167986    6.369347906977974
H    -3.7751487409717455    3.3047535393322987    7.2323768195523535
C    -5.57305102499286    4.107457404245216    6.416059035051272
H    -5.711549108221482    4.662135948526993    7.339364150242864
H    -5.713839740334847    4.774862734271955    5.567015743818367
C    -6.572385556171056    2.9497583008559323    6.404383051099109
O    -7.175633620204143    2.616003702483707    7.404492526436008
N    -6.644131881619979    2.2650194829730417    5.232744537162751
H    -6.224556423158423    2.6709410119226944    4.406908068807701
C    -7.5585470961485255    1.1546901007847845    5.075946762402513
H    -8.570803727975873    1.4427861315134727    5.3666257513312585
O    -7.900135667618918    1.7784729039592027    2.7930617553053936
H    -7.805432272568267    1.4839071026444497    1.879391664058572
C    -7.553193317954909    0.6881846930605845    3.6264527827336455
H    -8.277205914397967    -0.1307348918169545    3.556691981501678
H    -6.560266832015474    0.29256852343122663    3.3907160068099613
C    -7.209007737545862    -0.0815992166818264    5.910685015983931
O    -8.040656755792618    -0.9398892883145825    6.1042387587564715
N    -5.8993578859406774    -0.2150610353477034    6.2759109161904325
H    -5.704629898769725    -0.9405314524659267    6.94665985217314
H    -5.325337210278181    0.6101419739925918    6.309876347594096
