61
fragments fixed, E = -37232.575090 eV
N    -0.4433713225654475    -1.6529304836737477    5.497849179988917
H    -1.3769617926681497    -1.8225101224244094    5.850450841082508
H    0.21123704704990068    -1.9342134456560602    6.217184193076154
C    -0.23918157670399431    -2.363972162817786    4.24315228721744
H    -0.39727554929697734    -3.4514673112864487    4.342767898071918
N    0.9892702400423287    -4.502009175815592    -0.753909654643119
H    1.0975226001957368    -3.4820698028847126    -0.6823719434061016
H    1.605062693661922    -4.977629742201972    -1.39165631947001
C    -0.12826210335370025    -5.099966347289514    -0.3683003229674298
N    -0.4930403134764921    -6.265257619443223    -0.9223567674686219
H    -1.1919276696540382    -6.8467519530962475    -0.4946810801023922
H    -0.0754489688467595    -6.585157659285854    -1.7781038261894984
N    -0.9008086350193714    -4.563496668155164    0.5727012666143685
H    -1.7952962975561122    -5.000073628691646    0.7346858267255573
C    -0.46604010685584835    -3.565813026266058    1.5614591423407462
H    0.16855101619115695    -4.052827401623433    2.3063413647335502
H    0.12873064933239586    -2.8068632565168463    1.05905171573867
C    -1.6703348647425063    -2.9117518104059577    2.21866963810215
H    -2.247320411826122    -3.665987605451234    2.763302794154241
H    -2.3220749856309424    -2.5022912972641467    1.4432774634220285
C    -1.2408012741030352    -1.795854200236265    3.1628520357725365
H    -2.10926014204615    -1.2599788861930645    3.542820834768217
H    -0.6089992889592396    -1.0736154882131534    2.6417394024488448
C    1.2715376452478366    -2.0947162397772554    3.8426322654852325
O    1.5927875960484428    -0.9617220088991241    3.564859161055045
N    2.204322300023433    -3.126032014065801    3.8518176611075754
H    1.9069031851954488    -4.02805714045111    4.18711465959597
C    3.6551036095160367    -2.8483535575094407    3.8533393550040373
H    3.757362561049005    -1.8076035763467722    3.5447457300768273
H    4.040329627044273    -2.914687050020035    4.875679570844268
C    4.602822093482017    -3.7054666543029335    2.939828914414365
O    4.19314001276545    -4.5911503058706735    2.2231439795795076
N    5.934279808393743    -3.3190346949458105    3.055535271480171
H    6.036695966918094    -2.5205087441940393    3.6668129943839167
C    7.032036059030366    -3.263773693775263    2.0437914517997102
H    7.915022226440563    -3.7658807199144073    2.438855352992983
H    6.735588200452823    -3.7645640285345583    1.12651362324819
C    7.359342382368718    -1.7188412371288009    1.820085807333356
O    6.666397971591519    -1.055471646922206    2.5719580339165375
N    8.283522482772414    -1.1208264032592603    0.9338092203912685
H    8.715982095669899    -1.7393871769755842    0.25459037380308347
C    8.276148116342668    0.3464129870222806    0.3160867528391843
H    7.275242001084491    0.7233442799529375    0.4982212828912926
C    9.307427260299047    1.6196649371194556    0.795682150375625
H    10.251452468690445    1.0714002149550037    0.805253267307025
C    8.816917055899216    1.9113853070008846    2.2104068155164045
H    9.58146133063538    2.5045613128865694    2.724699128733303
C    7.525899663787565    2.724841407498607    2.1788325602280625
C    8.620012201818108    0.6151640369877205    2.9915807733439923
H    6.7495257128654504    2.1786343007918925    1.6377279611911146
H    7.151974948106173    2.922069272243191    3.1849894657877273
H    7.664094146681981    3.686499830036142    1.681518260599493
H    9.526465326007312    0.005994932638091648    2.985272402733273
H    8.355902325576114    0.8172450957798114    4.031320049731619
H    7.814593007337242    0.020740080272548138    2.548926612450783
H    9.459930366236106    2.540770079992641    0.2306050171018046
C    8.44064186209184    0.1069710347659318    -1.1747947983214948
O    8.912877958215287    -0.9203072504021413    -1.6260738969218547
N    8.035121716091309    1.1343862247191334    -1.9569000724646461
H    8.208496736977303    1.0813767603198956    -2.94544207689507
H    7.6948347555924315    1.9949887285875318    -1.566524818994463
