68
fragments fixed, E = -42896.474856 eV
N    -3.7442349295516144    -1.4927523451969007    3.3736413942942995
H    -4.4159464660585765    -1.2952928471170229    4.103255325516166
H    -4.0787267597752175    -1.0286292482826935    2.5342801176656757
C    -2.4438265031934203    -0.9537199264325852    3.7213325627539895
H    -2.358582570772596    -0.9150939713855698    4.807657249219025
N    0.9892702400423287    -4.502009175815592    -0.753909654643119
H    1.0975226001957368    -3.4820698028847126    -0.6823719434061016
H    1.605062693661922    -4.977629742201972    -1.39165631947001
C    -0.12826210335370025    -5.099966347289514    -0.3683003229674298
N    -0.4930403134764921    -6.265257619443223    -0.9223567674686219
H    -1.1919276696540382    -6.8467519530962475    -0.4946810801023922
H    -0.0754489688467595    -6.585157659285854    -1.7781038261894984
N    -0.9008086350193714    -4.563496668155164    0.5727012666143685
H    -1.7952962975561122    -5.000073628691646    0.7346858267255573
C    -0.46604010685584835    -3.565813026266058    1.5614591423407462
H    0.16855101619115695    -4.052827401623433    2.3063413647335502
H    0.12873064933239586    -2.8068632565168463    1.05905171573867
C    -1.6703348647425063    -2.9117518104059577    2.21866963810215
H    -2.247320411826122    -3.665987605451234    2.763302794154241
H    -2.3220749856309424    -2.5022912972641467    1.4432774634220285
C    -1.2408012741030352    -1.795854200236265    3.1628520357725365
H    -0.685012476363151    -2.181656841569932    4.018129887649265
H    -0.6089992889592396    -1.0736154882131534    2.6417394024488448
C    -2.200104157303618    0.4457001916604207    3.155386929543333
O    -2.7673368488665933    0.8385446599245064    2.1545135356036775
N    -1.2148773731384077    1.1431646910855366    3.790543075588393
H    -0.6779419738260933    0.6270515892962515    4.472926087370897
C    -0.4359723305188384    2.1362025108399867    3.092621880556939
H    -0.9061240984542045    2.333500979471969    2.1291795094235364
H    -0.40486557073827    3.0758455464114323    3.649523556396109
C    0.9979587755457725    1.6288968250139146    2.9261236030067646
O    1.3806489933944288    0.6185092747141452    3.4882743551940547
N    1.8049046254395251    2.410018263038586    2.1684532802397425
H    1.4029721889626774    3.2065163180918526    1.7033571920611623
C    3.212485742473437    2.1318762760959085    2.0063889418136625
H    3.8065047903579035    3.001829682928067    2.294092800371022
H    3.450405307770117    1.319884425671075    2.693538131799459
C    3.5652299335254742    1.645104998328221    0.6000465298670838
O    2.9597066121118334    0.7369146318672269    0.06575480926547546
N    4.625847880818076    2.281118810754305    0.03276366923199246
H    5.001762353711715    3.0885313286415657    0.5017550369050909
C    5.116447913638279    1.9976401261175207    -1.3020343121235651
H    4.549534112235814    1.1514393497648379    -1.6890710623573983
H    4.962832473781159    2.8465033425742066    -1.9668593270458465
C    6.6077300348353525    1.6655574374397684    -1.3528483773475302
O    7.29062322314754    2.02657247757487    -2.2875905681536093
N    7.075822514993622    0.9201963051758216    -0.31544906618200025
H    6.445056130197247    0.7408444013990299    0.44743922436890277
C    8.496683188855457    0.6702725599907047    -0.12862801586906186
H    8.927889299688909    0.8183856063750513    -1.123678213044307
C    9.307427260299047    1.6196649371194556    0.795682150375625
H    10.251452468690445    1.0714002149550037    0.805253267307025
C    8.816917055899216    1.9113853070008846    2.2104068155164045
H    9.58146133063538    2.5045613128865694    2.724699128733303
C    7.525899663787565    2.724841407498607    2.1788325602280625
C    8.620012201818108    0.6151640369877205    2.9915807733439923
H    6.7495257128654504    2.1786343007918925    1.6377279611911146
H    7.151974948106173    2.922069272243191    3.1849894657877273
H    7.664094146681981    3.686499830036142    1.681518260599493
H    9.526465326007312    0.005994932638091648    2.985272402733273
H    8.355902325576114    0.8172450957798114    4.031320049731619
H    7.814593007337242    0.020740080272548138    2.548926612450783
H    9.459930366236106    2.540770079992641    0.2306050171018046
C    8.773806197860607    -0.809406560397432    0.16911069817610114
O    9.831532073782626    -1.1788694605018695    0.6283457229104988
N    7.774258933224769    -1.6831345652650362    -0.14908183254373703
H    8.029506270717821    -2.6572438551923807    -0.15412664704651294
H    7.021208420415006    -1.386151256740194    -0.7440030936332741
