61
free relaxation, E = -37236.737244 eV
N    -0.4355072651988197    -1.5622459887166387    5.579068888661748
H    -1.3392441077980868    -1.718114618670467    6.00640227341299
H    0.27326622903733727    -1.698171821143839    6.288884272564869
C    -0.2347394297229298    -2.4276395060177913    4.423324159202395
H    -0.2634571782924394    -3.502200067859394    4.671705260794714
N    1.8927443311650924    -4.752708389104324    0.009648313794218799
H    2.238523399129363    -4.155246856588958    0.7644788729009376
H    2.5919638432065466    -5.274279797956954    -0.49069589859052765
C    0.6170368909847771    -4.919559345286821    -0.29588810540708255
N    0.28496597724201256    -5.742603738136157    -1.303642834667795
H    -0.6706642410136314    -5.874771598460156    -1.5808658570397207
H    0.995341954929883    -6.152237832313875    -1.8834481131107044
N    -0.338815132922881    -4.301721444850293    0.38564499423679205
H    -1.2880899440626636    -4.398340629357721    0.062218720733062484
C    -0.09757873170220482    -3.372363706801668    1.4940087893336804
H    0.6760098392859261    -3.8047308504723567    2.1315266611270394
H    0.27878814844031596    -2.41869437355118    1.1182211408635032
C    -1.3921072566236448    -3.1815036224841586    2.272303915590288
H    -1.693374062603082    -4.144660634976606    2.694480609011226
H    -2.182171763171655    -2.8790638683416776    1.5788290661058593
C    -1.3035090073687332    -2.134315423097879    3.3789460886848652
H    -2.272971439966473    -2.085271041467133    3.8799169037807926
H    -1.1056189635725095    -1.1438080570045426    2.9684861574852843
C    1.157315292899492    -2.089639643750355    3.8814893261904286
O    1.3708472633968078    -1.1491453908530076    3.148251357280331
N    2.1579460118495035    -2.9087967329230553    4.319388858924168
H    1.9348662289951581    -3.680984209565362    4.922699016971193
C    3.533848925863457    -2.5671097563357725    4.091241430646739
H    3.609188594617859    -1.4790036078544893    4.007728503987705
H    4.137781671373075    -2.8897030464526945    4.940425724726118
C    4.138576101073549    -3.1009884881620877    2.8021953127880375
O    3.473092313282548    -3.497410719712344    1.8554999245341637
N    5.490011332236187    -3.070170462450876    2.8051210611730255
H    5.901516143589211    -2.618093516544531    3.608761499727174
C    6.252913741638366    -2.9202361069515734    1.5868173629544389
H    7.17741336865155    -3.495215619567529    1.640750753764714
H    5.656238123129319    -3.29819334349939    0.756626637997868
C    6.527323847897427    -1.4300531305227513    1.3587790593352373
O    5.778292349292826    -0.5900350338773098    1.829279363903831
N    7.636431746447533    -1.1524917466711087    0.6513245044813749
H    8.102237807683458    -1.89471610710453    0.1414635740743116
C    7.903385845143308    0.17363760652049662    0.12662211887031616
H    6.989820342375453    0.7609548596478284    0.23765707565988733
C    9.075312192870356    0.893258050264019    0.8170587287132601
H    9.918146407191616    0.19784781124783193    0.8702784770358364
C    8.80030336972713    1.5046053818670908    2.200008793986888
H    9.688115537368555    2.105629265395724    2.421915638330873
C    7.60092595922232    2.4474560259001397    2.1745830991091153
C    8.65571946441635    0.4865332278350669    3.328898819341637
H    6.661986781440821    1.8950702484205635    2.1002343701358908
H    7.5642892103770745    3.0305971970763794    3.0942395072364897
H    7.664602153283362    3.1486457362775213    1.3388556840165344
H    9.492629077080608    -0.2131240192207911    3.3532416344556593
H    8.622462539437679    0.9995228625359169    4.292232600469572
H    7.7264555232001895    -0.07399100063284399    3.2309181270980423
H    9.389923555064417    1.7079994147700226    0.15680569845325057
C    8.21705956420714    -0.01774592827953328    -1.3597376121750282
O    8.566348080837455    -1.0991862608601473    -1.79849611331514
N    8.104113238664054    1.0870322796260976    -2.1255498043898022
H    8.348450734798025    1.02976439112469    -3.098979874460435
H    7.809480967359484    1.9693105155949113    -1.748756877352277
