53
free relaxation, E = -36074.696535 eV
N    -3.4504295953730852    -0.4517411274123308    2.5276257502398165
H    -2.9618020196957335    -0.16815984730685168    1.687685402477262
H    -4.199012706475624    -1.0813605323243531    2.2816322449238986
C    -2.5609998435520867    -0.9836444307760104    3.5507854233847564
H    -3.1305426456946344    -1.6877552783519465    4.164063041530334
N    1.0609838765207429    -4.623274363726536    -0.6311696328077316
H    1.5144322847987575    -3.9441181096314675    -0.046538216017681336
H    1.544767186426619    -4.920741228856628    -1.4604342753470314
C    -0.07969294633483313    -5.196708393383365    -0.25180670774622316
N    -0.5457535685380523    -6.249773301466192    -0.9289151707429242
H    -1.4903480132183236    -6.568839120872271    -0.7969762401408235
H    -0.021133835462280943    -6.654092439412044    -1.6849590226996882
N    -0.7487536275543466    -4.722123911671389    0.7863269335495602
H    -1.5367132124981657    -5.252283362584165    1.1253652488004309
C    -0.41364414021001866    -3.4877609289953915    1.5056229713600602
H    0.4068477150984158    -3.67250308974138    2.2043540371466075
H    -0.08695139684870473    -2.7471396003617183    0.772068015698331
C    -1.6378429073229424    -2.9646882432436765    2.238719114392279
H    -2.0032328065267064    -3.729780375808927    2.9320501039894133
H    -2.4281803929240615    -2.778891193802122    1.5058041401773699
C    -1.3164917961183875    -1.688497738063424    3.0041086789209093
H    -0.6449109847108974    -1.8985564140801237    3.8377412476865507
H    -0.7991037659501569    -0.9836141974754132    2.3415228302268636
C    -2.0932176125027007    0.09112785727319507    4.544408190956452
O    -1.3456215061257908    -0.20329900770674456    5.462844838664961
N    -2.561969922601198    1.3271430794869536    4.309168776916333
H    -3.251820968896348    1.4462659921465395    3.5801026516915013
C    -2.372613276397454    2.427879001181976    5.2285708014338255
H    -2.1244541085512925    2.030979265653943    6.212338233071192
H    -1.5587191669428944    3.0842250991837683    4.910868903340677
C    -3.6709338830596834    3.215730744527708    5.2094073640110965
O    -4.21687502632861    3.4586294984018386    4.142316075936825
N    -4.200807579777083    3.562820623040919    6.398905226741226
H    -3.748132477022733    3.256931646394911    7.244256511949815
C    -5.558259905700559    4.086309459732115    6.484240011445624
H    -5.686278616615007    4.620146170681546    7.4204415500948855
H    -5.71776086865696    4.766455468742552    5.648536154104531
C    -6.563760869919119    2.9335465654291277    6.450750979978882
O    -7.241207872945966    2.6353686602206206    7.413543630815509
N    -6.557205853559689    2.2196330348324635    5.294633970544716
H    -6.096843338762153    2.6275386959436773    4.491002663784434
C    -7.476456299067444    1.1214752901431138    5.090182166155908
H    -8.470309939200835    1.4011274820458206    5.446148386940651
O    -7.880891492077984    1.959541325025646    2.901801648887729
H    -8.131466294622106    1.728905030265083    2.0030363912115834
C    -7.539331650921527    0.7788549537568027    3.6083635909178557
H    -8.27801831165563    -0.013549797966148658    3.4794330072309902
H    -6.558740982677937    0.39949390324930983    3.28430527535727
C    -7.10902368439929    -0.16712078386645268    5.83077851571446
O    -7.8810890768105155    -1.102708404253209    5.832019622077015
N    -5.8661553699603415    -0.22749586465463636    6.384218456808028
H    -5.703331237084746    -0.9954190131755611    7.015289612397392
H    -5.367658440902744    0.6294328502481603    6.5509702186108765
