54
condensed pair, closure 0.000 A, charge 0
N    -2.2114146991351724    0.39353055231782297    3.7047110688914335
H    -3.0252825963175045    0.8751923963559909    4.059282519989461
H    -1.4176531092082973    0.5945118516529447    4.2960223707234935
C    -2.461033213839328    -1.0429202409568479    3.6967288625886328
H    -3.3058849112435698    -1.2655401833414044    3.044988139105844
N    0.9892702400423287    -4.502009175815592    -0.753909654643119
H    1.0975226001957368    -3.4820698028847126    -0.6823719434061016
H    1.605062693661922    -4.977629742201972    -1.39165631947001
C    -0.12826210335370025    -5.099966347289514    -0.3683003229674298
N    -0.4930403134764921    -6.265257619443223    -0.9223567674686219
H    -1.1919276696540382    -6.8467519530962475    -0.4946810801023922
H    -0.0754489688467595    -6.585157659285854    -1.7781038261894984
N    -0.9008086350193714    -4.563496668155164    0.5727012666143685
H    -1.7952962975561122    -5.000073628691646    0.7346858267255573
C    -0.46604010685584835    -3.565813026266058    1.5614591423407462
H    0.16855101619115695    -4.052827401623433    2.3063413647335502
H    0.12873064933239586    -2.8068632565168463    1.05905171573867
C    -1.6703348647425063    -2.9117518104059577    2.21866963810215
H    -2.247320411826122    -3.665987605451234    2.763302794154241
H    -2.3220749856309424    -2.5022912972641467    1.4432774634220285
C    -1.2408012741030352    -1.795854200236265    3.1628520357725365
H    -0.685012476363151    -2.181656841569932    4.018129887649265
H    -0.6089992889592396    -1.0736154882131534    2.6417394024488448
C    -2.78001391674703    -1.484583703702345    5.121091771698585
O    -1.9121299170623023    -1.9231919847766796    5.875917008998092
N    -4.048266155662698    -1.3690240553760011    5.501122331212012
H    -4.7263157707215555    -1.0037891982376763    4.847706522825283
C    -4.486071374085728    -1.7558823654837192    6.836948382246414
H    -3.6722616096241176    -1.5477686267550153    7.531572265379797
H    -5.369434056410142    -1.1676395284542367    7.085425214486607
C    -4.833712379016594    -3.2395846180180135    6.8952438153035365
O    -3.9739339953633595    -4.102716126113754    7.071726479423851
N    -6.117692739352657    -3.5477489092575585    6.74467753795
H    -6.788225485418615    -2.8060060435028413    6.602187687240464
C    -6.583323812958116    -4.928948516543665    6.779881914463911
H    -5.801713262032062    -5.536372638724466    7.236194178679934
H    -7.497145124469378    -4.9613162379131674    7.373163416991323
C    -6.873186228830092    -5.4491552315698915    5.375962488889037
O    -6.243170098105164    -6.3867296888599245    4.886682597555161
N    -7.84465186186478    -4.832716355163762    4.710756779737604
H    -8.33468073932466    -4.067851734096116    5.15229252086674
C    -8.22127883603618    -5.2320822117544115    3.3600448723233187
H    -9.072773384015015    -4.639498922833665    3.0255271890027036
O    -6.625113390067254    -3.7589224174388995    0.3990322761737076
C    -7.466687201907631    -3.964734057500037    1.3085619679436657
C    -7.065232055557264    -4.989546192930536    2.3876086939972567
H    -6.7670412926101475    -5.9287631090012125    1.9192927429427546
H    -6.201898342312742    -4.608512976175139    2.936128811623874
O    -8.586640768263367    -3.4191619904955295    1.4466443706786605
C    -8.599671748841013    -6.709227629671659    3.382072533687051
O    -8.393520793163761    -7.418937468051137    4.366539256730918
N    -9.164653138117188    -7.186734180970625    2.2779780978537154
H    -9.438251744519816    -8.157790211427237    2.230082500056137
H    -9.320423382857477    -6.5785687575959955    1.4867951552512422
