47
fragments fixed, E = -33486.370359 eV
N    -2.926425511214251    -1.890735559794747    4.93213939168253
H    -3.2438543413961862    -1.3632566052806447    5.734444471358005
H    -3.7150174618783236    -2.440693491826147    4.608166532207004
C    -2.3688474490741034    -1.0425965755988413    3.876280505835165
H    -1.9055084775242204    -0.17837777711845082    4.364525580819046
N    0.9892702400423287    -4.502009175815592    -0.753909654643119
H    1.0975226001957368    -3.4820698028847126    -0.6823719434061016
H    1.605062693661922    -4.977629742201972    -1.39165631947001
C    -0.12826210335370025    -5.099966347289514    -0.3683003229674298
N    -0.4930403134764921    -6.265257619443223    -0.9223567674686219
H    -1.1919276696540382    -6.8467519530962475    -0.4946810801023922
H    -0.0754489688467595    -6.585157659285854    -1.7781038261894984
N    -0.9008086350193714    -4.563496668155164    0.5727012666143685
H    -1.7952962975561122    -5.000073628691646    0.7346858267255573
C    -0.46604010685584835    -3.565813026266058    1.5614591423407462
H    0.16855101619115695    -4.052827401623433    2.3063413647335502
H    0.12873064933239586    -2.8068632565168463    1.05905171573867
C    -1.6703348647425063    -2.9117518104059577    2.21866963810215
H    -2.247320411826122    -3.665987605451234    2.763302794154241
H    -2.3220749856309424    -2.5022912972641467    1.4432774634220285
C    -1.2408012741030352    -1.795854200236265    3.1628520357725365
H    -0.685012476363151    -2.181656841569932    4.018129887649265
H    -0.6089992889592396    -1.0736154882131534    2.6417394024488448
C    -3.413455286905152    -0.4969550495868575    2.88962364815843
O    -3.209557106148842    -0.4605190171416246    1.6928489416302022
N    -4.595437401495602    -0.09418679825603811    3.4603554321827588
H    -4.617195762976608    -0.2292345038483887    4.461484134633563
C    -5.835093509734759    -0.6178469875206135    2.868727563535323
H    -6.681068917049536    -4.3733123530810374e-05    3.15801094024747
H    -5.736971489828618    -0.6390612148008983    1.7876702725791982
C    -5.975976024576871    -1.9979308634897155    3.500118882418832
O    -6.2599177015693614    -2.0874345224929547    4.689596897987274
N    -5.547479093317758    -3.034314530792637    2.743415130016444
H    -5.5971592001505766    -2.950082431125059    1.7166950657838858
C    -5.849735153422026    -4.400622272227933    3.1716096319189337
H    -6.118935492482702    -4.326515569058036    4.225051297265177
O    -6.625113390067254    -3.7589224174388995    0.3990322761737076
C    -7.466687201907631    -3.964734057500037    1.3085619679436657
C    -7.065232055557264    -4.989546192930536    2.3876086939972567
H    -7.888143088824324    -5.16219107999311    3.079819834415865
H    -6.7670412926101475    -5.9287631090012125    1.9192927429427546
O    -8.586640768263367    -3.4191619904955295    1.4466443706786605
C    -4.523422289318839    -5.161718775239151    3.081361553735325
O    -3.919640156379618    -5.431493743390159    2.051271891620719
N    -3.999606300820567    -5.4702179316498585    4.297445133973638
H    -3.0810855122450693    -5.876508744452968    4.3394569139996895
H    -4.422707653610239    -5.134509724513067    5.144123316279957
