47
condensed pair, closure 0.083 A, charge 0
N    -2.667976845020425    -1.3418802508027137    5.108664146525734
H    -3.4759518100192244    -0.8378191380877039    5.445114515203931
H    -2.818252780238624    -2.3338697835825397    5.224741319775075
C    -2.461033213839328    -1.0429202409568479    3.6967288625886328
H    -2.280332642225749    0.024463249627452832    3.5696863994253243
N    0.9892702400423287    -4.502009175815592    -0.753909654643119
H    1.0975226001957368    -3.4820698028847126    -0.6823719434061016
H    1.605062693661922    -4.977629742201972    -1.39165631947001
C    -0.12826210335370025    -5.099966347289514    -0.3683003229674298
N    -0.4930403134764921    -6.265257619443223    -0.9223567674686219
H    -1.1919276696540382    -6.8467519530962475    -0.4946810801023922
H    -0.0754489688467595    -6.585157659285854    -1.7781038261894984
N    -0.9008086350193714    -4.563496668155164    0.5727012666143685
H    -1.7952962975561122    -5.000073628691646    0.7346858267255573
C    -0.46604010685584835    -3.565813026266058    1.5614591423407462
H    0.16855101619115695    -4.052827401623433    2.3063413647335502
H    0.12873064933239586    -2.8068632565168463    1.05905171573867
C    -1.6703348647425063    -2.9117518104059577    2.21866963810215
H    -2.247320411826122    -3.665987605451234    2.763302794154241
H    -2.3220749856309424    -2.5022912972641467    1.4432774634220285
C    -1.2408012741030352    -1.795854200236265    3.1628520357725365
H    -0.685012476363151    -2.181656841569932    4.018129887649265
H    -0.6089992889592396    -1.0736154882131534    2.6417394024488448
C    -3.7156022778958926    -1.4469491005396753    2.9296290358799864
O    -3.794742221234614    -2.519554505261572    2.330783884668323
N    -4.718628528584681    -0.5751917841927132    2.9444115195932916
H    -4.60875382637995    0.2926773640064697    3.449219098200672
C    -5.973532293225425    -0.8393132749016444    2.25071102252256
H    -6.716649211647338    -0.13124790305873035    2.617481624877869
H    -5.802622487812762    -0.7052872941489845    1.1825692365703888
C    -6.4586287855096565    -2.2615390765828254    2.510672870119196
O    -7.638482094928121    -2.5826161738596234    2.3684875478858434
N    -5.535148481967549    -3.1346202026799426    2.899458770355775
H    -4.5794275861055365    -2.8270939716467782    3.0095731946572677
C    -5.855079036349588    -4.4554439210036705    3.1564808766291352
H    -6.069353816291988    -4.538868829098215    4.221951009195062
O    -6.625113390067254    -3.7589224174388995    0.3990322761737076
C    -7.466687201907631    -3.964734057500037    1.3085619679436657
C    -7.065232055557264    -4.989546192930536    2.3876086939972567
H    -7.888143088824324    -5.16219107999311    3.079819834415865
H    -6.7670412926101475    -5.9287631090012125    1.9192927429427546
O    -8.586640768263367    -3.4191619904955295    1.4466443706786605
C    -4.607612131805778    -5.264665008702584    2.8179361184489595
O    -4.494465819692959    -5.8702842873390155    1.7522043504138887
N    -3.649577005098485    -5.278860789213302    3.738918298412629
H    -2.798367198163694    -5.796944969585508    3.574204465884527
H    -3.7727089505025266    -4.771564974767224    4.60355086815917
