64
fragments fixed, E = -38750.877799 eV
N    -3.543563706766872    -1.8649808346464107    4.125275361962024
H    -3.6124762384986657    -1.9649893451507088    5.127715279931679
H    -4.440371500969567    -1.561332578720296    3.768989341865661
C    -2.4308617896197386    -1.0004140719177506    3.724800003697989
H    -2.0517024049035997    -0.4454464033550867    4.589929247707746
N    0.9892702400423287    -4.502009175815592    -0.753909654643119
H    1.0975226001957368    -3.4820698028847126    -0.6823719434061016
H    1.605062693661922    -4.977629742201972    -1.39165631947001
C    -0.12826210335370025    -5.099966347289514    -0.3683003229674298
N    -0.4930403134764921    -6.265257619443223    -0.9223567674686219
H    -1.1919276696540382    -6.8467519530962475    -0.4946810801023922
H    -0.0754489688467595    -6.585157659285854    -1.7781038261894984
N    -0.9008086350193714    -4.563496668155164    0.5727012666143685
H    -1.7952962975561122    -5.000073628691646    0.7346858267255573
C    -0.46604010685584835    -3.565813026266058    1.5614591423407462
H    0.16855101619115695    -4.052827401623433    2.3063413647335502
H    0.12873064933239586    -2.8068632565168463    1.05905171573867
C    -1.6703348647425063    -2.9117518104059577    2.21866963810215
H    -2.247320411826122    -3.665987605451234    2.763302794154241
H    -2.3220749856309424    -2.5022912972641467    1.4432774634220285
C    -1.2408012741030352    -1.795854200236265    3.1628520357725365
H    -0.685012476363151    -2.181656841569932    4.018129887649265
H    -0.6089992889592396    -1.0736154882131534    2.6417394024488448
C    -2.9112334116704726    0.07084332426327748    2.7365502320026294
O    -2.595579167760434    0.08971876463818121    1.5546159881877843
N    -3.6909030355869836    1.018286481621074    3.3105515103401006
H    -3.9623033589764622    0.8915229034222716    4.272278208445201
C    -4.294210364078497    2.088795670644834    2.5693615460221846
H    -4.217525869563    3.021613264281806    3.131576306025517
H    -3.731759140219118    2.2032273792026986    1.6427301767983962
C    -5.75205517009952    1.8223975494156424    2.20445260754486
O    -6.283328617390978    0.746106238892348    2.3601453181771244
N    -6.3950614556112795    2.91861358725993    1.703505442843352
H    -5.824348324899802    3.7177890282774353    1.4789100022561712
C    -7.618156789304944    2.761353192425324    0.9649085122785296
H    -8.312634555492998    2.1476238636372864    1.5411027421208274
H    -8.083243132148173    3.7365594211298183    0.8160635087759327
C    -7.354794751869028    2.0727929044434825    -0.3768639990035258
O    -6.2603165449964076    1.6040796505454942    -0.6318456737149718
N    -8.412061154082112    2.0016747012658342    -1.2229100017024672
H    -9.26016741767243    2.475166769927148    -0.9565573127195813
C    -8.412424076592092    1.2636909940635312    -2.489829403178951
H    -9.470274021205038    1.117785915994019    -2.7267362445140995
N    -2.98965419167988    1.070835641766168    -2.9644319150640768
H    -2.0507009107564356    1.4145825389560407    -2.7551088947160762
H    -3.250977373615515    0.4513295586510292    -2.1796602326433208
C    -4.007735367129729    2.1746486004047085    -3.0846689048127045
H    -3.678476357996471    2.841249719042652    -3.880222480394362
H    -3.9873657882047246    2.706555058243069    -2.1358202326012656
C    -5.372544515979213    1.578326089113671    -3.3549836342431103
H    -5.3383776691599625    0.9835380103607897    -4.27423678945064
H    -5.630172450309214    0.899288227069773    -2.5363939792798944
C    -6.448128471193208    2.6526361516017913    -3.4888090231731343
H    -6.202950774486346    3.303663027382036    -4.331204259282912
H    -6.451226053290126    3.282789344144308    -2.594599284919839
C    -7.826109495357071    2.0374273920007635    -3.692014047267572
H    -8.581118135851536    2.804815319697454    -3.8587829403778358
H    -7.834053787209995    1.369105101537057    -4.555345894443767
H    -2.941970697754408    0.5129937680876749    -3.8184091698786484
C    -7.901242413962306    -0.17524360441446146    -2.3234156509257624
O    -7.233927483826251    -0.7142747116803951    -3.1848524903303272
N    -8.330164646182924    -0.810305522233528    -1.2138950925117085
H    -8.10671979921675    -1.7836741659600315    -1.0994561222221486
H    -8.870660781012226    -0.34598038500587    -0.5075315315047353
