64
free relaxation, E = -38751.902404 eV
N    -3.756162625100063    -1.7699644026203476    3.5442610896211773
H    -3.844757953679342    -2.1880877507003134    4.4618921534790505
H    -4.587357408890579    -1.2126665234526193    3.374399353683612
C    -2.5375305256427243    -0.9582759853680893    3.446371908162259
H    -2.2515200517679936    -0.5398933507412367    4.41873401813298
N    1.3504789371308612    -5.339434227296574    0.13613958059800108
H    1.7192442190483597    -4.630557247421075    0.7456105827868134
H    2.007470688227224    -5.95637369282417    -0.30971611769612345
C    0.03827909988219054    -5.489001729514439    -0.03578931576146623
N    -0.4142200036685489    -6.47518155163061    -0.8156911131291407
H    -1.3988956960499295    -6.641003646950348    -0.930860533574779
H    0.21369928993304335    -7.138947674044833    -1.2356967303706352
N    -0.8082438741396435    -4.653212446811729    0.5451376218702378
H    -1.7950582032519458    -4.833058909460914    0.4486018406340258
C    -0.4254001985805249    -3.5656597236151377    1.4543479011961167
H    0.03346843122533351    -3.997116366131417    2.348550423837849
H    0.3107465138613785    -2.9274976157252484    0.9576354228451534
C    -1.6540096538693043    -2.750461303747423    1.8299617897333007
H    -2.45142829295218    -3.4178737329404365    2.165959269839377
H    -2.024144552339551    -2.203407942859723    0.9611446246661768
C    -1.3359191344647934    -1.7776200305906733    2.9587156253869775
H    -0.9548023593199341    -2.3447836991108986    3.8137069727386055
H    -0.539037304248263    -1.090197832320356    2.659771323385957
C    -2.8647877592179456    0.22673448933206813    2.543084406473092
O    -2.7525520721946632    0.21196645987440893    1.32848828416205
N    -3.3295882090505677    1.3030373580259809    3.234660870058421
H    -3.5088486460725137    1.1706213768664822    4.216839688879979
C    -4.053804139012274    2.349703717816257    2.574759471597235
H    -4.020713182507729    3.2636715696012457    3.1684950197722466
H    -3.576905905220632    2.552622942344947    1.6156284888544197
C    -5.496111387234547    1.940790174671181    2.2973036697229623
O    -5.900145783348441    0.8091075602824335    2.4641580704295603
N    -6.291164006671214    2.948658085250997    1.8390177825716896
H    -5.857139132590139    3.8312395677946345    1.6238844568280917
C    -7.5162481400580266    2.6184867370979594    1.1702721486096954
H    -8.061704486295248    1.885871334544638    1.7668568820903923
H    -8.14033793272261    3.5062909199088854    1.0718812640842645
C    -7.238808026076681    2.0011947918021944    -0.1993566812626268
O    -6.095083806166788    1.704145202845865    -0.5273552205448143
N    -8.304277349546398    1.785034999541774    -0.988725050600376
H    -9.204955881704965    2.0929423713191277    -0.6576317827207793
C    -8.245531373785463    1.1192406520286844    -2.295319557070495
H    -9.26365974582614    0.761043903573816    -2.470991423092107
N    -4.2309238128136215    1.161676638683275    -2.4070727511576857
H    -3.3473285488400952    1.0334257283375394    -1.9173308405977996
H    -4.956680572967984    1.4154192430914048    -1.7021109788616706
C    -4.139429515115916    2.1864167886568935    -3.497147826618311
H    -3.323928112419508    1.8884285934942486    -4.154369083611217
H    -3.871422011072383    3.1321580834533163    -3.0272443832210185
C    -5.448050477820477    2.281122672138223    -4.260965536414923
H    -5.248742666166838    2.9020069676953355    -5.134226705553995
H    -5.704752489506061    1.290752573848146    -4.6376528261781775
C    -6.630438381311371    2.8761776137485398    -3.465719872889204
H    -6.872971287464647    3.8420033974761703    -3.907530397219973
H    -6.334306097787903    3.102194270518303    -2.4399512576133877
C    -7.923076899805588    2.042321969325612    -3.4761856106239812
H    -8.774073209923081    2.722847623978659    -3.549237190909448
H    -7.959106909980281    1.4285779192629293    -4.378955198669131
H    -4.56092303539598    0.26679338375912764    -2.7839769538457766
C    -7.391720903824003    -0.1572624775840047    -2.2123571913806472
O    -6.42863572697933    -0.3527300701719514    -2.939457469436997
N    -7.822056449141435    -1.0644739620707457    -1.321902377958404
H    -7.343143585451324    -1.94690667969763    -1.256927032403589
H    -8.652682742319    -0.925370254221877    -0.773112295362727
