54
condensed pair, closure 0.000 A, charge 0
N    0.9407378988042262    -2.534662728570896    4.013825609317924
H    1.3871216487001254    -1.6371249360151698    3.890264050720318
H    1.404303776067759    -3.0415944075810337    4.7542491031732
C    -0.4610330382374749    -2.337132913028569    4.362801556966248
H    -0.5396270239292622    -1.6102499803711026    5.171234725276629
N    0.9892702400423287    -4.502009175815592    -0.753909654643119
H    1.0975226001957368    -3.4820698028847126    -0.6823719434061016
H    1.605062693661922    -4.977629742201972    -1.39165631947001
C    -0.12826210335370025    -5.099966347289514    -0.3683003229674298
N    -0.4930403134764921    -6.265257619443223    -0.9223567674686219
H    -1.1919276696540382    -6.8467519530962475    -0.4946810801023922
H    -0.0754489688467595    -6.585157659285854    -1.7781038261894984
N    -0.9008086350193714    -4.563496668155164    0.5727012666143685
H    -1.7952962975561122    -5.000073628691646    0.7346858267255573
C    -0.46604010685584835    -3.565813026266058    1.5614591423407462
H    0.16855101619115695    -4.052827401623433    2.3063413647335502
H    0.12873064933239586    -2.8068632565168463    1.05905171573867
C    -1.6703348647425063    -2.9117518104059577    2.21866963810215
H    -2.247320411826122    -3.665987605451234    2.763302794154241
H    -2.3220749856309424    -2.5022912972641467    1.4432774634220285
C    -1.2408012741030352    -1.795854200236265    3.1628520357725365
H    -2.10926014204615    -1.2599788861930645    3.542820834768217
H    -0.6089992889592396    -1.0736154882131534    2.6417394024488448
C    -1.0380056852309196    -3.6741907691233253    4.8155750699688
O    -0.34511422972062566    -4.688661240569407    4.893754948740718
N    -2.331422494345132    -3.6818780932569246    5.120951661980163
H    -2.8606926125727092    -2.8253057973521116    5.041850183866767
C    -3.0060655488264896    -4.894921006492732    5.567211272171864
H    -2.287665125781699    -5.493107595907932    6.127723213536966
H    -3.8443524745513344    -4.601147203608815    6.198932716241883
C    -3.524339520262057    -5.7049433074668565    4.383623099513406
O    -4.727337377820841    -5.888138908224319    4.197621684002426
N    -2.6033643043454786    -6.201828951043866    3.5643854606841865
H    -1.6275540183858355    -6.025866197458258    3.756560888785519
C    -2.9652896457570495    -6.994403873068085    2.39536919038577
H    -2.131303652154837    -6.9608693715789745    1.6943393766936503
H    -3.1543882989258893    -8.015627019216371    2.726193894935971
C    -4.216017244376594    -6.44180584330953    1.7201352371826228
O    -4.153680353103596    -5.732778894995316    0.7157668294005723
N    -5.37712290016995    -6.769240418417189    2.2776845669362764
H    -5.379869459738107    -7.35361671115219    3.101454440687335
C    -6.647069285139163    -6.3066411417010055    1.730873744904722
H    -7.4240177260852    -7.044441331914595    1.9311285811317511
O    -6.625113390067254    -3.7589224174388995    0.3990322761737076
C    -7.466687201907631    -3.964734057500037    1.3085619679436657
C    -7.065232055557264    -4.989546192930536    2.3876086939972567
H    -7.888143088824324    -5.16219107999311    3.079819834415865
H    -6.201898342312742    -4.608512976175139    2.936128811623874
O    -8.586640768263367    -3.4191619904955295    1.4466443706786605
C    -6.486020257689828    -6.125189760476235    0.22529624540187543
O    -5.487612836498234    -6.523251178898974    -0.3747793568957254
N    -7.484867533029821    -5.512865414384176    -0.4020824406632514
H    -7.437987087628043    -5.362502394298838    -1.3997262578794694
H    -8.29084184456658    -5.19788036106622    0.11877245787292323
