53
condensed pair, closure 0.000 A, charge 1
N    -3.463121433982969    -0.8866589433916097    2.6492721303401936
H    -3.0058448536373246    -0.6734365150524376    1.7743239460912403
H    -3.9878898261992504    -1.7443622183988714    2.554071150447355
C    -2.461033213839328    -1.0429202409568479    3.6967288625886328
H    -2.87859569762206    -1.6201347453585089    4.5216924909053855
N    0.9892702400423287    -4.502009175815592    -0.753909654643119
H    1.0975226001957368    -3.4820698028847126    -0.6823719434061016
H    1.605062693661922    -4.977629742201972    -1.39165631947001
C    -0.12826210335370025    -5.099966347289514    -0.3683003229674298
N    -0.4930403134764921    -6.265257619443223    -0.9223567674686219
H    -1.1919276696540382    -6.8467519530962475    -0.4946810801023922
H    -0.0754489688467595    -6.585157659285854    -1.7781038261894984
N    -0.9008086350193714    -4.563496668155164    0.5727012666143685
H    -1.7952962975561122    -5.000073628691646    0.7346858267255573
C    -0.46604010685584835    -3.565813026266058    1.5614591423407462
H    0.16855101619115695    -4.052827401623433    2.3063413647335502
H    0.12873064933239586    -2.8068632565168463    1.05905171573867
C    -1.6703348647425063    -2.9117518104059577    2.21866963810215
H    -2.247320411826122    -3.665987605451234    2.763302794154241
H    -2.3220749856309424    -2.5022912972641467    1.4432774634220285
C    -1.2408012741030352    -1.795854200236265    3.1628520357725365
H    -0.685012476363151    -2.181656841569932    4.018129887649265
H    -0.6089992889592396    -1.0736154882131534    2.6417394024488448
C    -2.0595582745508128    0.34303846311854724    4.190248207418128
O    -1.3834606775086706    0.5009925350334965    5.206763603484184
N    -2.481120033052358    1.3706394750463544    3.4604791726858837
H    -3.0336603899969137    1.1931879451853482    2.6338534360326076
C    -2.1665557658211694    2.7475375848187276    3.822369925657787
H    -1.190562609509561    2.7536847298991622    4.307652906443497
H    -2.14997748459244    3.340725614422185    2.9080652050494606
C    -3.2095709239364565    3.3188787639379576    4.776997411635636
O    -3.652263696108901    4.46040213030236    4.649292621160263
N    -3.6134140264098136    2.514293612613889    5.754644834203465
H    -3.2224242503689577    1.5853707969022808    5.8204429913352485
C    -4.606310652798082    2.937967979009207    6.734655201784503
H    -4.189878185218241    2.7740447422921397    7.728543109151106
H    -4.813058966685454    3.9953126592055748    6.56919414302695
C    -5.898654037548164    2.1413529014905928    6.59016300766069
O    -6.511606633194436    1.7130742162606338    7.568031855343341
N    -6.3255115973864635    1.9357947251739194    5.348478885285657
H    -5.789829229912223    2.3061025968677615    4.576457848435774
C    -7.547139807947869    1.1895148686472958    5.071973937910141
H    -8.41264091745419    1.8381553739257004    5.207152798518975
O    -7.900135667618918    1.7784729039592027    2.7930617553053936
H    -7.805432272568267    1.4839071026444497    1.879391664058572
C    -7.553193317954909    0.6881846930605845    3.6264527827336455
H    -8.277205914397967    -0.1307348918169545    3.556691981501678
H    -6.560266832015474    0.29256852343122663    3.3907160068099613
C    -7.626250394465122    0.017234278756290022    6.044149196629315
O    -8.64001172856172    -0.21419810830734476    6.703002752215615
N    -6.538476742430427    -0.7403116734436533    6.139614437657572
H    -6.527987033797076    -1.5322051625313136    6.766427542141962
H    -5.7222912151307135    -0.5241303075478234    5.585352043059217
