64
fragments fixed, E = -42375.393314 eV
N    -2.1146924390490116    0.33194373163320856    4.1615291257361955
H    -1.1212686660283835    0.5155956275472915    4.141311084851576
H    -2.5861405766339893    1.0453748658825124    3.6263299178921287
C    -2.4547684095715536    -1.0202868013790605    3.723235571646818
H    -3.2257854336974248    -0.9691388184359062    2.950467948953703
N    0.9892702400423287    -4.502009175815592    -0.753909654643119
H    1.0975226001957368    -3.4820698028847126    -0.6823719434061016
H    1.605062693661922    -4.977629742201972    -1.39165631947001
C    -0.12826210335370025    -5.099966347289514    -0.3683003229674298
N    -0.4930403134764921    -6.265257619443223    -0.9223567674686219
H    -1.1919276696540382    -6.8467519530962475    -0.4946810801023922
H    -0.0754489688467595    -6.585157659285854    -1.7781038261894984
N    -0.9008086350193714    -4.563496668155164    0.5727012666143685
H    -1.7952962975561122    -5.000073628691646    0.7346858267255573
C    -0.46604010685584835    -3.565813026266058    1.5614591423407462
H    0.16855101619115695    -4.052827401623433    2.3063413647335502
H    0.12873064933239586    -2.8068632565168463    1.05905171573867
C    -1.6703348647425063    -2.9117518104059577    2.21866963810215
H    -2.247320411826122    -3.665987605451234    2.763302794154241
H    -2.3220749856309424    -2.5022912972641467    1.4432774634220285
C    -1.2408012741030352    -1.795854200236265    3.1628520357725365
H    -0.685012476363151    -2.181656841569932    4.018129887649265
H    -0.6089992889592396    -1.0736154882131534    2.6417394024488448
C    -3.041590243635205    -1.858313547362003    4.866614449236974
O    -3.402564904145342    -3.0105756778855564    4.683616751166059
N    -3.0841287573577683    -1.2186699333071067    6.050502637270096
H    -2.6876457150441526    -0.28862830277471896    6.036635741198395
C    -3.2200469183949414    -1.942862758762919    7.277370355233018
H    -3.6375119716072475    -1.2981127060609259    8.05099025337526
H    -3.909516835419753    -2.7733301644365924    7.114202761945671
C    -1.8862976833088259    -2.541192307458796    7.712352397370517
O    -1.021184535895742    -2.866721775004562    6.916198273410119
N    -1.7480810053558664    -2.74913722867909    9.04080484353839
H    -2.387581885002562    -2.3269073270342036    9.689890145744874
C    -0.5656840392316277    -3.4156679423547156    9.52371487791433
H    -0.5932138335243969    -3.422427335036993    10.61250093330883
H    -0.5529132396080814    -4.449871710159901    9.174179435708643
C    0.7149319939144727    -2.689138046626203    9.113922674428238
O    0.8657609779263161    -1.5007916769443013    9.295071359965666
N    1.69785484286594    -3.501373839275562    8.637148290380665
H    1.4161994418125698    -4.3959246766201225    8.273503458207347
C    2.9672026508589826    -2.956071168145724    8.183106758157923
H    3.5539924348715153    -3.8186298655213364    7.857797441913343
C    4.1556876074106865    -3.7835312443700593    3.4163672335472395
C    5.129036607963831    -3.341492582194848    4.26930401274674
C    4.6913851560934425    -2.726920153527842    5.441298589092671
C    3.3328811321184935    -2.574126442457316    5.711450982102379
C    2.402076154768857    -3.0254332080745674    4.778497795634135
C    2.8079310114890688    -3.6435089022221585    3.5938949239622846
H    6.18446173840121    -3.450961011750294    4.058145157466032
H    5.42131829476264    -2.362659726054509    6.156049874780157
H    1.342565989185355    -2.8969655848398768    4.973280545677201
H    2.085420421739104    -3.9969120657167196    2.869008581266445
C    2.8870783379774427    -1.9545852933550074    7.0090973960920335
H    3.558970636106942    -1.1533824351037396    7.3172998386270685
H    1.8823976969597551    -1.5433228123003753    6.925582636010076
H    2.7814257037102452    -3.169871941649232    -3.4138808439853805
O    3.005672565562057    -2.2807868037637045    -3.125331020466319
H    2.422274958667677    -2.1202565229211703    -2.3680979606881967
C    3.8153776366929257    -2.382324605970788    9.334817895730794
O    4.701963170707622    -1.58467727485462    9.111920837339818
N    3.604625880792828    -2.923730949915354    10.557391272986775
H    4.123386318796201    -2.53356366539437    11.325760440702423
H    2.7818948228296425    -3.4653180894055864    10.748080540578604
