64
condensed pair, closure 0.000 A, charge 1
N    -2.106808129803179    0.3311292403821515    4.03180588757186
H    -1.1383137685907312    0.36996127251823013    4.315726203118098
H    -2.2441941159885244    0.9213331283183698    3.22379322587351
C    -2.461033213839328    -1.0429202409568479    3.6967288625886328
H    -3.225455796029247    -1.0463694129493406    2.9197177821974565
N    0.9892702400423287    -4.502009175815592    -0.753909654643119
H    1.0975226001957368    -3.4820698028847126    -0.6823719434061016
H    1.605062693661922    -4.977629742201972    -1.39165631947001
C    -0.12826210335370025    -5.099966347289514    -0.3683003229674298
N    -0.4930403134764921    -6.265257619443223    -0.9223567674686219
H    -1.1919276696540382    -6.8467519530962475    -0.4946810801023922
H    -0.0754489688467595    -6.585157659285854    -1.7781038261894984
N    -0.9008086350193714    -4.563496668155164    0.5727012666143685
H    -1.7952962975561122    -5.000073628691646    0.7346858267255573
C    -0.46604010685584835    -3.565813026266058    1.5614591423407462
H    0.16855101619115695    -4.052827401623433    2.3063413647335502
H    0.12873064933239586    -2.8068632565168463    1.05905171573867
C    -1.6703348647425063    -2.9117518104059577    2.21866963810215
H    -2.247320411826122    -3.665987605451234    2.763302794154241
H    -2.3220749856309424    -2.5022912972641467    1.4432774634220285
C    -1.2408012741030352    -1.795854200236265    3.1628520357725365
H    -0.685012476363151    -2.181656841569932    4.018129887649265
H    -0.6089992889592396    -1.0736154882131534    2.6417394024488448
C    -3.0002525598047223    -1.7213150762551261    4.9515786322333
O    -3.5271213507590864    -2.833251529394121    4.914597538429046
N    -2.869003925730719    -1.0437836566936949    6.087345321109488
H    -2.429948486038131    -0.13437629506991688    6.06977911773974
C    -3.3424652932445387    -1.5793994322924232    7.3580593229217435
H    -3.4566907325679757    -0.747244076281235    8.052731916647206
H    -4.298524112321355    -2.0719390024827944    7.180700065305661
C    -2.3536600902534683    -2.587204481141847    7.934443096159157
O    -2.239642961128915    -3.7230889890734193    7.473870106387453
N    -1.6220358909257209    -2.169420879923414    8.962267932165268
H    -1.7496916665722548    -1.2286449336940422    9.30686134757002
C    -0.6398721749127027    -3.0341110885536913    9.60525259609313
H    -0.8170148697816199    -3.0038311047984507    10.68033565718114
H    -0.7746884608334705    -4.04373777318601    9.217208105436603
C    0.7818826028673828    -2.5659309128302916    9.313626680030948
O    1.2435372897529344    -1.5389987803653078    9.811267459496944
N    1.4941521472124044    -3.329668059684388    8.491666421433429
H    1.0739115749460935    -4.163626950764066    8.106945185458033
C    2.8665485957502943    -2.9947298093532915    8.130960986517707
H    3.380552689038072    -3.886685664103598    7.772750789482418
C    4.1556876074106865    -3.7835312443700593    3.4163672335472395
C    5.129036607963831    -3.341492582194848    4.26930401274674
C    4.6913851560934425    -2.726920153527842    5.441298589092671
C    3.3328811321184935    -2.574126442457316    5.711450982102379
C    2.402076154768857    -3.0254332080745674    4.778497795634135
C    2.8079310114890688    -3.6435089022221585    3.5938949239622846
H    6.18446173840121    -3.450961011750294    4.058145157466032
H    5.42131829476264    -2.362659726054509    6.156049874780157
H    1.342565989185355    -2.8969655848398768    4.973280545677201
H    2.085420421739104    -3.9969120657167196    2.869008581266445
C    2.8870783379774427    -1.9545852933550074    7.0090973960920335
H    3.558970636106942    -1.1533824351037396    7.3172998386270685
H    1.8823976969597551    -1.5433228123003753    6.925582636010076
H    2.7814257037102452    -3.169871941649232    -3.4138808439853805
O    3.005672565562057    -2.2807868037637045    -3.125331020466319
H    2.422274958667677    -2.1202565229211703    -2.3680979606881967
C    3.573193625403587    -2.4570324944848227    9.370783312356993
O    3.5728053686319496    -1.2584238559966807    9.651315273099941
N    4.189460398912488    -3.356072580748863    10.131166891321765
H    4.6757700504598505    -3.0628205779655078    10.966395115027977
H    4.171494946946758    -4.33256798994808    9.87380730174228
