66
fragments fixed, E = -43895.233078 eV
N    -2.386773041671543    -1.2347910376102988    5.2712988607673905
H    -2.863814565084525    -0.4849608611054435    5.755926048419808
H    -2.9060402225268196    -2.0851298946396453    5.4717588994137145
C    -2.4151716638239784    -1.014510055552699    3.834226674406962
H    -2.2686922615656053    0.05064739187303993    3.648693925785282
N    0.9892702400423287    -4.502009175815592    -0.753909654643119
H    1.0975226001957368    -3.4820698028847126    -0.6823719434061016
H    1.605062693661922    -4.977629742201972    -1.39165631947001
C    -0.12826210335370025    -5.099966347289514    -0.3683003229674298
N    -0.4930403134764921    -6.265257619443223    -0.9223567674686219
H    -1.1919276696540382    -6.8467519530962475    -0.4946810801023922
H    -0.0754489688467595    -6.585157659285854    -1.7781038261894984
N    -0.9008086350193714    -4.563496668155164    0.5727012666143685
H    -1.7952962975561122    -5.000073628691646    0.7346858267255573
C    -0.46604010685584835    -3.565813026266058    1.5614591423407462
H    0.16855101619115695    -4.052827401623433    2.3063413647335502
H    0.12873064933239586    -2.8068632565168463    1.05905171573867
C    -1.6703348647425063    -2.9117518104059577    2.21866963810215
H    -2.247320411826122    -3.665987605451234    2.763302794154241
H    -2.3220749856309424    -2.5022912972641467    1.4432774634220285
C    -1.2408012741030352    -1.795854200236265    3.1628520357725365
H    -0.685012476363151    -2.181656841569932    4.018129887649265
H    -0.6089992889592396    -1.0736154882131534    2.6417394024488448
C    -3.7426208607472415    -1.4506858494991963    3.2176026278949528
O    -4.3393511723144    -2.431198678318686    3.6328057667149536
N    -4.162550351270915    -0.7293042048952266    2.157993286349614
H    -3.537476906185068    -0.05112907280947605    1.747366993778031
C    -5.240936661392487    -1.1826391240301974    1.312419382760593
H    -5.223804406073418    -2.2747154110650376    1.2475283335710814
H    -6.217683011768955    -0.895871989179828    1.706934498714645
C    -5.0159454802519985    -0.5926782732570408    -0.06880321552479982
O    -3.8838366901937142    -0.37273945206089903    -0.4852877604523012
N    -6.121013949710809    -0.3270984609193426    -0.7693434380993639
H    -7.051548661110758    -0.4649740104983096    -0.3956749855480559
C    -6.061997171195695    0.25578781967936876    -2.0811188778405785
H    -5.552537260520305    1.2243326866354296    -2.0595913087057376
H    -5.511604942388505    -0.39096909864506246    -2.766990592848952
C    -7.495282870342511    0.4402140420285383    -2.5560245681532967
O    -8.433181205497918    0.3231791291115904    -1.7920487211342646
N    -7.62514994675803    0.7740521989340998    -3.863639339987374
H    -6.790170215054518    0.7607711798648729    -4.427178598907256
C    -8.89928273972999    0.717103178819889    -4.570014474715931
H    -8.749805533465647    1.2927506021357738    -5.488544449277971
C    -6.994373722257473    -2.5191921642887256    -3.5937232463782682
C    -8.37184505994573    -2.476730749046014    -3.344622206216911
C    -8.910973837441631    -3.2969834746319884    -2.3339956760445886
C    -8.118467764206757    -4.155363751715846    -1.5735000971013178
C    -6.765374608251059    -4.178585971783629    -1.8428578119198242
C    -6.205416624011167    -3.3672456693821795    -2.8446132645736215
H    -6.554845161815094    -1.8904613027804231    -4.358902963224503
H    -8.544098673887293    -4.777273021652271    -0.796309283136288
H    -6.121177528088399    -4.830823390421954    -1.2670248619321225
H    -5.13631686569991    -3.3986015255956894    -3.0160606862183617
C    -9.458045311591022    -1.713723453842197    -3.905159915563329
C    -10.57521537314892    -2.097384825608114    -3.230883166321958
H    -11.592033846049752    -1.7600081202478195    -3.351760566178255
N    -10.259204039629685    -3.0432578712161713    -2.2759824885751434
H    -10.916910487252787    -3.4977975000290193    -1.670778720641096
C    -9.361056164220514    -0.6893702967538683    -4.989623489334983
H    -8.71460838837216    -1.028269476204355    -5.801520769600676
H    -10.34087230590113    -0.4732601319961192    -5.415154867606811
C    -10.023158483322304    1.474904692330124    -3.842694595653214
O    -11.16702437026334    1.0783759311814505    -3.8808108049123278
N    -9.678371887873356    2.676320481942111    -3.311572078539417
H    -10.394234452294784    3.1375760715952743    -2.7749895020383324
H    -8.722900814287081    2.8645751933806474    -3.0683377621251107
