62
condensed pair, closure 0.000 A, charge 1
N    -1.3706265185897903    -2.686045159118011    5.4475429754754625
H    -1.3999632864423504    -3.690080643423453    5.553146480661139
H    -1.0464262478442283    -2.266896545412057    6.307373554180873
C    -0.4610330382374749    -2.337132913028569    4.362801556966248
H    0.08224197593938776    -3.2248184711748547    4.038816049837228
N    0.9892702400423287    -4.502009175815592    -0.753909654643119
H    1.0975226001957368    -3.4820698028847126    -0.6823719434061016
H    1.605062693661922    -4.977629742201972    -1.39165631947001
C    -0.12826210335370025    -5.099966347289514    -0.3683003229674298
N    -0.4930403134764921    -6.265257619443223    -0.9223567674686219
H    -1.1919276696540382    -6.8467519530962475    -0.4946810801023922
H    -0.0754489688467595    -6.585157659285854    -1.7781038261894984
N    -0.9008086350193714    -4.563496668155164    0.5727012666143685
H    -1.7952962975561122    -5.000073628691646    0.7346858267255573
C    -0.46604010685584835    -3.565813026266058    1.5614591423407462
H    0.16855101619115695    -4.052827401623433    2.3063413647335502
H    0.12873064933239586    -2.8068632565168463    1.05905171573867
C    -1.6703348647425063    -2.9117518104059577    2.21866963810215
H    -2.247320411826122    -3.665987605451234    2.763302794154241
H    -2.3220749856309424    -2.5022912972641467    1.4432774634220285
C    -1.2408012741030352    -1.795854200236265    3.1628520357725365
H    -2.10926014204615    -1.2599788861930645    3.542820834768217
H    -0.6089992889592396    -1.0736154882131534    2.6417394024488448
C    0.5226866957759814    -1.2911023026795454    4.876358220953138
O    0.14410268158147038    -0.2542242441975968    5.421260997634516
N    1.8119441789025847    -1.5626054529685725    4.702168147799729
H    2.0761084493257416    -2.4260996238473065    4.249735771537543
C    2.854846184985013    -0.6461184386560475    5.147332115687699
H    3.0520612332998973    -0.8462425027606673    6.200497147239928
H    3.743871982345572    -0.8287160465262088    4.54368383628361
C    2.420398444876775    0.8062279759940767    4.9812897928667565
O    2.4439686998319603    1.6035228077501635    5.918907195828317
N    2.014893915165429    1.162187040958056    3.7667527533107164
H    2.0124156954870167    0.47395950926901187    3.027539169119766
C    1.5735140550896793    2.5205612925511653    3.47389235699812
H    1.6974515916801496    3.11720842259541    4.377635511458419
H    2.1915670365257    2.908333441394252    2.6641125889626
C    0.10920343793287368    2.5450048021454257    3.0486607362070854
O    -0.3676636074487457    3.4844012469813146    2.4118773032734877
N    -0.622794949333024    1.4944415685337662    3.404661091857945
H    -0.18886735364841034    0.746684025512925    3.9268349121120876
C    -2.036083364239687    1.3934866129303805    3.060876601698151
H    -2.1910337605501295    0.5513472296476387    2.3864200546861136
C    -4.292432460838818    -2.9090302140371906    4.310712348082198
C    -4.783058401449417    -1.9882053075826573    3.394030992082555
C    -4.337922887393539    -0.6771172005322432    3.4195739130392298
C    -3.3858137699550976    -0.26104874475219964    4.3462767672853415
C    -2.9087848264651286    -1.1882939087295497    5.265212873107461
C    -3.359111797277515    -2.50288863419171    5.252145706170048
H    -4.633878085161529    -3.9355023112088    4.285338092844825
H    -5.516509201266228    -2.2865481807220998    2.65369863612344
H    -4.7253228759082555    0.03581341295374673    2.7022787814777542
H    -2.1712985703016248    -0.8796196022899742    5.995961737281487
H    -2.9816505122570316    -3.2113380116045542    5.978899867572863
C    -2.877203723726529    1.154658265000729    4.316415355015594
H    -3.7028323242081    1.866846230452274    4.295427548638581
H    -2.2575599954547214    1.3721918598632792    5.185034138966937
C    -2.4584470122007938    2.687475368480702    2.373252395179563
O    -2.893391821830548    3.648960334787514    3.0070746669104684
N    -2.3302481246407836    2.718086270730471    1.0508042797921084
H    -2.5930440582637386    3.5469752718714367    0.5370131538870657
H    -1.9700248949789942    1.9124606339779677    0.5595746408052558
