54
free relaxation, E = -39149.679455 eV
N    -1.747889868883706    0.6056032544906536    4.602365696850019
H    -2.277777741467744    1.1772323394652568    5.247986699984227
H    -0.9014557304705092    0.3254617010563624    5.088025397027209
C    -2.4901574126056163    -0.5911493231050319    4.235528636740513
H    -3.4743512993550505    -0.28466853752309235    3.8668547785154805
N    -0.7252945033049987    -5.7761554520738    0.5694648522734304
H    -0.03805840690972057    -5.156603913506691    0.9543321931988159
H    -0.4029360457637204    -6.62714160832529    0.14765340358151507
C    -1.9798076160631726    -5.3471511547966575    0.32683394416738343
N    -2.831527875424616    -6.114535560279836    -0.34044575692711754
H    -3.8021954028605096    -5.726309792429094    -0.4212529323348753
H    -2.604746138976034    -7.069397123565862    -0.5510368170104469
N    -2.403864257031968    -4.16473374239131    0.7372854777322724
H    -3.3888687290410133    -3.982001365510276    0.4785490636814124
C    -1.6367226323255462    -3.1562478654095694    1.444061011800442
H    -0.7844502705956774    -3.614382059989826    1.9504139212324392
H    -1.2472130807286432    -2.4160660005918437    0.7375292607090626
C    -2.491353672440652    -2.4738587081585957    2.5013081679841935
H    -2.7667498942517765    -3.210568059270433    3.2608087557504284
H    -3.418081360232249    -2.114885660583896    2.0379069439796442
C    -1.7350173408676792    -1.3053643600525797    3.116978030343573
H    -0.7803266768619609    -1.6488304848774813    3.5321052342337635
H    -1.5060183195073742    -0.5549213450869179    2.35723882810266
C    -2.657194509473569    -1.5505120676581507    5.418470463717926
O    -1.7221962934333286    -1.8152972615700091    6.149947594631082
N    -3.909088613068377    -2.0559083916527174    5.603940878693058
H    -4.58398420545804    -1.9047345318082127    4.872282201311895
C    -4.165764768997757    -3.0991035528935544    6.5635353146725635
H    -3.3493664697874235    -3.0796828743455595    7.286995685799238
H    -5.101444215034993    -2.904353243687108    7.091839006618479
C    -4.189313318521247    -4.475285603667706    5.903314293204843
O    -3.498385129253347    -4.737041855082224    4.939058635058058
N    -5.048638465940375    -5.3764131849859265    6.4444563436016296
H    -5.5798323018263005    -5.1327273683867025    7.261712409226406
C    -5.183022405207183    -6.697473419644235    5.858517454653456
H    -4.23025880964265    -7.224033559279614    5.859323345373988
H    -5.895908823420089    -7.270301917971854    6.450339389115332
C    -5.661545873454027    -6.689680711075512    4.402770290905647
O    -5.364593990682076    -7.604133137602646    3.6616694001239702
N    -6.3829178559718525    -5.607427614278248    4.039835971778892
H    -6.719718211095807    -5.012109285324097    4.7742648885487995
C    -6.909674442536229    -5.394639816867851    2.709451159095469
H    -7.224234905061595    -4.348814259776102    2.660161613878411
O    -4.913820253656279    -4.503583270199154    -0.27942314972720034
C    -5.956160735951064    -4.592167189020227    0.45568605189911826
C    -5.8346242311442875    -5.573915928676177    1.6287122773550045
H    -5.849345535692854    -6.589496033396404    1.229687118106551
H    -4.851805735165326    -5.44083634679927    2.087501573287781
O    -7.0072824344853215    -3.9674957496331573    0.2900718369584112
C    -8.186292674796798    -6.219912010170509    2.4790689186287436
O    -8.658515144096107    -6.942882623901148    3.336247413500676
N    -8.725787514836654    -6.0242269702605284    1.2564185629231752
H    -9.624137508055089    -6.434480186177924    1.0709402485991275
H    -8.365025050822943    -5.265979984651112    0.6811855271268044
