69
free relaxation, E = -45972.535848 eV
N    -2.5850871141160288    -0.1366971595147773    -0.5376938794948334
H    -3.4528331312420164    0.3920321254588144    -0.6000528388671795
H    -1.8077947577985691    0.3908328853844821    -0.13877971972507983
C    -2.4798156353535794    -1.3894051889960213    -0.8403727694312108
H    -3.4539889551735032    -1.7241395108276159    -1.230067499229985
N    0.3721308990621736    -5.323131052355577    -0.0277057637918654
H    0.7618454013035676    -5.401653675657281    0.8940137221090944
H    0.5546810378838714    -6.064983246285368    -0.6800313146990878
C    -0.28079277409256354    -4.216549642555905    -0.40668216299003546
N    -0.731174996609464    -4.1076485216575165    -1.6610020888389339
H    -1.2277456217963978    -3.262025364261253    -1.906863473910389
H    -0.4961010421670853    -4.77481687851155    -2.372652255400403
N    -0.5100097232870802    -3.226462045986007    0.4291284211652104
H    -1.1187893076237794    -2.4675642565434104    0.0338077197417218
C    -0.29825099708117386    -3.3090596853825325    1.869666341050289
H    -0.843503179495773    -4.172054292385058    2.2688174588217715
H    0.7649165866033022    -3.4541612689908354    2.086748880762656
C    -0.8085665379484747    -2.0407265814265902    2.5415858434651573
H    -1.7494935591387069    -1.7603491954236294    2.0595279382969625
H    -0.10769629370228699    -1.2158425502092798    2.385170244104013
C    -1.0754383912512469    -2.2586095768004286    4.028771912496299
H    -1.7554839809937124    -3.101861140318091    4.154311696901165
H    -0.14907465943772188    -2.5242578029813147    4.54919590970938
C    -1.666107686190687    -1.0309000014708698    4.677494423971397
O    -2.9659382680572555    1.8154087709997182    4.995250544935485
N    -0.6905392321343621    0.001783032498313511    4.954534060916821
H    -1.195884057415783    0.860875960863916    5.151410174910708
C    0.13737229729447664    -0.2325661057158108    6.146687203961376
H    -0.44235046529394084    -0.5770244229769123    7.01049457860524
H    0.9223152604130288    -0.9607774746338177    5.935204735268667
C    0.6874671376574154    1.1541080861972601    6.43368848073208
O    -0.05883315539224075    2.038733862084981    6.807832232867919
N    1.9723337907133867    1.395267671640018    6.066829669158809
H    2.5394859706986312    0.6306689040099998    5.743748387887232
C    2.391580280501515    2.7571253235758917    5.811952614062147
H    2.056708216576754    3.4038253724776055    6.620181329778977
H    3.4782301834723697    2.807960404349693    5.768336935075146
C    1.8501701034754001    3.347747519695101    4.506451803932636
O    2.0403035075579394    4.511111377415155    4.228706357442598
N    1.1728126617003827    2.4891294499105032    3.6911060991951037
H    1.0580392236484815    1.524708008563898    3.961279092223852
C    0.739405752333689    2.8795480080996194    2.36898435007076
H    0.5722521791673884    3.9588740535421003    2.3724343566763464
H    1.4824510951836263    2.6597188377591228    1.6017918327152127
C    -0.5375596335461159    2.1616641754427097    1.9747166777644607
O    -0.6627788954157383    1.62060038028463    0.8831091054653918
N    -1.5287567190040445    2.16420103047027    2.8928581617818416
H    -1.3590456515906457    2.544020027304168    3.8132571212314894
C    -2.716385777737215    1.376184603180606    2.662381009711407
H    -2.427821435774962    0.4890454465878393    2.099091739473155
C    -4.136157566661908    -3.124100120169611    5.1393100616272855
C    -4.344074526524506    -2.6286901726205185    3.785672123276005
C    -3.873542367679595    -1.4417005354667245    3.3901760274446535
C    -3.0423854771423295    -0.5683548500579514    4.259093966654426
C    -2.8115973164006123    -1.1272007486807223    5.679466870094535
C    -3.4710678382150957    -2.390752713515733    6.038401096402776
H    -4.60012199163444    -4.057267194085656    5.429966214029437
H    -4.969783676363402    -3.2053983528405507    3.1167770057878426
H    -4.1716406499846475    -1.0366856692373674    2.426278797866161
H    -2.7140115198170562    -0.3976355164506036    6.478277240522142
H    -3.4192044296204593    -2.7078699093824956    7.073227176268625
C    -3.3706773961878254    0.9062129002996561    3.9862420759572808
H    -4.455306234921316    0.9609148967790375    3.856546245465428
H    -3.5599319183682243    1.7627202645300877    5.751119699540788
C    -3.749649466671527    2.0633831628696404    1.7701079705359157
O    -4.525528944100945    1.377157307342263    1.121524096363772
N    -3.7598927535910165    3.404377290408669    1.7741737267424893
H    -4.439391941676455    3.8873205118965037    1.2111942596901941
H    -3.0850296230924794    3.927361414935924    2.3022127631897993
