62
free relaxation, E = -40314.416020 eV
N    -0.24791799075056475    -3.481018895299012    5.0077749826934115
H    -0.48745489603921205    -4.378153775889963    4.609830180855359
H    -1.0707117060209959    -3.0920946001280796    5.460412636715749
C    0.2736053932782926    -2.538091370938121    4.025992716464493
H    1.1337668160302188    -3.0041638452062305    3.533214318296931
N    0.9763126193965832    -5.052192586070187    -1.010293371875054
H    1.4314301004157906    -4.258825955455268    -0.5946411145458056
H    1.4950726644560857    -5.596452327389369    -1.6779844261822194
C    -0.2890229291112846    -5.344057486536385    -0.7093060664887034
N    -0.9040771810886361    -6.3450372384819484    -1.3430375204157232
H    -1.8446098106963091    -6.610652062227775    -1.1068439552361993
H    -0.4665269897000406    -6.824776161074481    -2.1101519879972237
N    -0.9231687909033506    -4.650439123410148    0.22229129041814638
H    -1.8983272056395086    -4.848480224964168    0.38657241626380967
C    -0.324253845638019    -3.5736452535354397    1.0175440452805407
H    0.5985075193336041    -3.9442508818798236    1.472404136778894
H    -0.07714169437482099    -2.7315348430635984    0.3650430168719548
C    -1.3111591426138294    -3.1244548447115355    2.08463495598461
H    -1.6180864633096508    -3.988459972202495    2.6811568887267225
H    -2.2141601467835166    -2.7487677201557523    1.5960255572228839
C    -0.7466808917005814    -2.037551239099622    2.993058699445457
H    -1.5705216164112892    -1.5821639499431221    3.5457329004152425
H    -0.2982179580097799    -1.244587924531589    2.3820826279543943
C    0.7504458144613403    -1.3611941748610028    4.874607354784726
O    -0.06857262419880918    -0.6144331577379114    5.383579051552755
N    2.085837840556587    -1.1972306374383745    5.058747134575231
H    2.682538102096587    -1.9621442504225337    4.785326745672882
C    2.5512313703144645    -0.3609812575093666    6.164614241668592
H    2.2476054151474982    -0.780743137290601    7.122987654697691
H    3.6405028214179893    -0.32726088098478284    6.129737147268979
C    2.025457069233076    1.0722434654135518    6.165674628653977
O    1.7605938155911105    1.612391135960585    7.214712116746778
N    1.933763350893473    1.6898758056585814    4.954994396873811
H    2.1967703457371908    1.1781668784375552    4.129665185973122
C    1.3304960957808698    2.997443282775896    4.825723591334326
H    1.2605482340769811    3.432613405228027    5.820655810367082
H    1.9526922747099709    3.6607707879625924    4.225147687689937
C    -0.06778726733926516    3.0223862254405383    4.214586135051559
O    -0.647263775023051    4.077712392503995    4.050013732703965
N    -0.548349880528114    1.8189410010934637    3.802342861564834
H    -0.11833600647822173    1.016927716152874    4.242965631556596
C    -1.9288141826291063    1.5803227297688804    3.411421207804983
H    -1.8961082528815931    0.6293702171587627    2.8695223610770837
C    -4.45569469754941    -2.6239759772967393    4.529024859834904
C    -4.702616428646129    -1.74755688156801    3.479110419671135
C    -4.2203060069238045    -0.4478994847503082    3.526645678200707
C    -3.47398973420958    -0.003731542900786396    4.6189746917606005
C    -3.2438569838232962    -0.8823407758247408    5.672383291248024
C    -3.7325960030398964    -2.183644245722402    5.629300902437512
H    -4.853476520238764    -3.631070339124353    4.505957675302401
H    -5.2950416665788715    -2.070220321409263    2.6316697747967996
H    -4.431085010511015    0.24904735220536922    2.723092735988196
H    -2.6721219217125896    -0.5483694961997653    6.529936551820501
H    -3.5596333809282843    -2.8524444560509337    6.464801501128065
C    -2.89414936728604    1.388987787699512    4.604466070338022
H    -3.7026496834241134    2.114836399275796    4.5281487570750425
H    -2.3536895137749037    1.5785030579523944    5.531454903322663
C    -2.5079303810417235    2.500839490778877    2.3324450677982074
O    -3.710919688067031    2.5320952688919847    2.170113179014928
N    -1.6338536510878354    3.0876374167778846    1.4674740582075763
H    -2.074803647538002    3.7306714809124473    0.826069058893668
H    -0.7575654922054819    3.406947792590847    1.8466903863264217
