61
condensed pair, closure 0.014 A, charge 1
N    -1.300042545095506    -2.3457560294782898    5.555174271038714
H    -2.1060850992910076    -2.9331754011037123    5.396008060223777
H    -0.7711838931248883    -2.705236559798571    6.336955745976865
C    -0.4610330382374749    -2.337132913028569    4.362801556966248
H    -0.14502270554152114    -3.3536411166945914    4.128390504519762
N    0.9892702400423287    -4.502009175815592    -0.753909654643119
H    1.0975226001957368    -3.4820698028847126    -0.6823719434061016
H    1.605062693661922    -4.977629742201972    -1.39165631947001
C    -0.12826210335370025    -5.099966347289514    -0.3683003229674298
N    -0.4930403134764921    -6.265257619443223    -0.9223567674686219
H    -1.1919276696540382    -6.8467519530962475    -0.4946810801023922
H    -0.0754489688467595    -6.585157659285854    -1.7781038261894984
N    -0.9008086350193714    -4.563496668155164    0.5727012666143685
H    -1.7952962975561122    -5.000073628691646    0.7346858267255573
C    -0.46604010685584835    -3.565813026266058    1.5614591423407462
H    0.16855101619115695    -4.052827401623433    2.3063413647335502
H    0.12873064933239586    -2.8068632565168463    1.05905171573867
C    -1.6703348647425063    -2.9117518104059577    2.21866963810215
H    -2.247320411826122    -3.665987605451234    2.763302794154241
H    -2.3220749856309424    -2.5022912972641467    1.4432774634220285
C    -1.2408012741030352    -1.795854200236265    3.1628520357725365
H    -2.10926014204615    -1.2599788861930645    3.542820834768217
H    -0.6089992889592396    -1.0736154882131534    2.6417394024488448
C    0.7620121644299874    -1.469521299274763    4.640354290535244
O    0.6674199062953152    -0.36200310767340693    5.169331378860481
N    1.9357971405562053    -1.9771136479281202    4.278664039893976
H    1.9652235874597868    -2.8900904730382746    3.8477262241543815
C    3.1821332810571445    -1.250043801208344    4.487899942339285
H    2.97269513631894    -0.18548050101385494    4.383302411739192
H    3.5412684389028746    -1.4789687239817704    5.491251983316082
C    4.238043062470821    -1.6603885587014666    3.466970604180746
O    4.00720477480437    -2.494909973499391    2.5919570653192663
N    5.4216323511519215    -1.0657927240239045    3.575659099908022
H    5.56563327077682    -0.38696965490762103    4.309527600378463
C    6.517596805571243    -1.3681203995455626    2.6628481165916353
H    7.366164281752294    -1.7083687227754019    3.2563667067865887
H    6.18203652207066    -2.149220128458106    1.9806586197289526
C    6.923049719011336    -0.13610211760156932    1.8607484420257423
O    6.460010797636847    0.978652545539505    2.102156806208884
N    7.804726178125896    -0.3343799361380339    0.8862878075619216
H    8.155008927492124    -1.2672741472639673    0.7216354879786293
C    8.282556139983038    0.7689903295327046    0.04275991086523856
H    7.445063431326117    1.4119057339128105    -0.22810120808182988
C    9.307427260299047    1.6196649371194556    0.795682150375625
H    10.251452468690445    1.0714002149550037    0.805253267307025
C    8.816917055899216    1.9113853070008846    2.2104068155164045
H    9.58146133063538    2.5045613128865694    2.724699128733303
C    7.525899663787565    2.724841407498607    2.1788325602280625
C    8.620012201818108    0.6151640369877205    2.9915807733439923
H    6.7495257128654504    2.1786343007918925    1.6377279611911146
H    7.151974948106173    2.922069272243191    3.1849894657877273
H    7.664094146681981    3.686499830036142    1.681518260599493
H    9.526465326007312    0.005994932638091648    2.985272402733273
H    8.355902325576114    0.8172450957798114    4.031320049731619
H    7.814593007337242    0.020740080272548138    2.548926612450783
H    9.459930366236106    2.540770079992641    0.2306050171018046
C    8.903619753161651    0.17537865955129384    -1.2172123799600028
O    10.082047640645442    0.36983750031528706    -1.5152970545899047
N    8.100257879404046    -0.5638197093687024    -1.9751282533778154
H    8.452171784796057    -0.9847743688084353    -2.8230986407662675
H    7.137813129395645    -0.7046335620502608    -1.703151118172953
