62
fragments fixed, E = -40312.701505 eV
N    -0.4566658008145737    -3.438657487139058    5.0696806624085715
H    -1.061521399901478    -4.129011590007916    4.640374277317159
H    -0.946984490617613    -3.093102833986491    5.883860528700054
C    -0.1599592012385466    -2.343180529342043    4.154821323485658
H    0.6379284230003498    -2.7075867177019948    3.502979694912968
N    0.9892702400423287    -4.502009175815592    -0.753909654643119
H    1.0975226001957368    -3.4820698028847126    -0.6823719434061016
H    1.605062693661922    -4.977629742201972    -1.39165631947001
C    -0.12826210335370025    -5.099966347289514    -0.3683003229674298
N    -0.4930403134764921    -6.265257619443223    -0.9223567674686219
H    -1.1919276696540382    -6.8467519530962475    -0.4946810801023922
H    -0.0754489688467595    -6.585157659285854    -1.7781038261894984
N    -0.9008086350193714    -4.563496668155164    0.5727012666143685
H    -1.7952962975561122    -5.000073628691646    0.7346858267255573
C    -0.46604010685584835    -3.565813026266058    1.5614591423407462
H    0.16855101619115695    -4.052827401623433    2.3063413647335502
H    0.12873064933239586    -2.8068632565168463    1.05905171573867
C    -1.6703348647425063    -2.9117518104059577    2.21866963810215
H    -2.247320411826122    -3.665987605451234    2.763302794154241
H    -2.3220749856309424    -2.5022912972641467    1.4432774634220285
C    -1.2408012741030352    -1.795854200236265    3.1628520357725365
H    -2.10926014204615    -1.2599788861930645    3.542820834768217
H    -0.6089992889592396    -1.0736154882131534    2.6417394024488448
C    0.5364652923176781    -1.2805603713509117    4.996093900528557
O    -0.05379810442528626    -0.44983727565300163    5.660036637613988
N    1.9010276500201027    -1.3095804872660357    4.962422965163212
H    2.340630411526215    -2.135896219850067    4.591231386659851
C    2.633728155215011    -0.5352640118980627    5.954551847640973
H    2.415402899979898    -0.8725931985083013    6.967294903247493
H    3.701712631166162    -0.6548161754203075    5.772053220285129
C    2.283388971043927    0.9480124831413238    5.9263525548405465
O    2.256679689470734    1.597043999669072    6.944165408872948
N    2.047575644489982    1.471101302602783    4.685175113616095
H    2.090114834604638    0.8436711783278376    3.900230513187292
C    1.4081385344553734    2.757151358703125    4.550541200489873
H    1.5393761383945612    3.300989555563929    5.482348190705742
H    1.8801728700475018    3.34373558851763    3.756723298641539
C    -0.08631527747761834    2.723537162067235    4.246159011866528
O    -0.8016922152549184    3.655153965317058    4.540663118885064
N    -0.5402980447797581    1.673554983047931    3.4793702388967365
H    -0.05356427595845274    0.8003495020572194    3.5905005880744527
C    -1.9626015397394512    1.5855541607917665    3.1503571381035584
H    -2.04609960413815    0.8741890542590238    2.325191149382112
C    -4.292432460838818    -2.9090302140371906    4.310712348082198
C    -4.783058401449417    -1.9882053075826573    3.394030992082555
C    -4.337922887393539    -0.6771172005322432    3.4195739130392298
C    -3.3858137699550976    -0.26104874475219964    4.3462767672853415
C    -2.9087848264651286    -1.1882939087295497    5.265212873107461
C    -3.359111797277515    -2.50288863419171    5.252145706170048
H    -4.633878085161529    -3.9355023112088    4.285338092844825
H    -5.516509201266228    -2.2865481807220998    2.65369863612344
H    -4.7253228759082555    0.03581341295374673    2.7022787814777542
H    -2.1712985703016248    -0.8796196022899742    5.995961737281487
H    -2.9816505122570316    -3.2113380116045542    5.978899867572863
C    -2.877203723726529    1.154658265000729    4.316415355015594
H    -3.7028323242081    1.866846230452274    4.295427548638581
H    -2.2575599954547214    1.3721918598632792    5.185034138966937
C    -2.4197594908055504    2.9350912152327098    2.5622931428020492
O    -3.536578524781087    3.367451830994172    2.729697360064802
N    -1.543507866452199    3.4981129343669664    1.6710159667925288
H    -1.7581728284595735    4.449086869814004    1.4133662794545288
H    -0.5670406948383683    3.2774163841556003    1.7702174607496488
