69
condensed pair, closure 0.009 A, charge 1
N    -2.991316316478572    -0.14329771566991434    2.6792598738466378
H    -3.6818484282674646    -0.6299794048363037    2.1257200505109344
H    -3.419901797729109    0.6550589102730441    3.1254001915430116
C    -2.461033213839328    -1.0429202409568479    3.6967288625886328
H    -3.218480482370546    -1.7783222093766593    3.967943869988415
N    0.9892702400423287    -4.502009175815592    -0.753909654643119
H    1.0975226001957368    -3.4820698028847126    -0.6823719434061016
H    1.605062693661922    -4.977629742201972    -1.39165631947001
C    -0.12826210335370025    -5.099966347289514    -0.3683003229674298
N    -0.4930403134764921    -6.265257619443223    -0.9223567674686219
H    -1.1919276696540382    -6.8467519530962475    -0.4946810801023922
H    -0.0754489688467595    -6.585157659285854    -1.7781038261894984
N    -0.9008086350193714    -4.563496668155164    0.5727012666143685
H    -1.7952962975561122    -5.000073628691646    0.7346858267255573
C    -0.46604010685584835    -3.565813026266058    1.5614591423407462
H    0.16855101619115695    -4.052827401623433    2.3063413647335502
H    0.12873064933239586    -2.8068632565168463    1.05905171573867
C    -1.6703348647425063    -2.9117518104059577    2.21866963810215
H    -2.247320411826122    -3.665987605451234    2.763302794154241
H    -2.3220749856309424    -2.5022912972641467    1.4432774634220285
C    -1.2408012741030352    -1.795854200236265    3.1628520357725365
H    -0.685012476363151    -2.181656841569932    4.018129887649265
H    -0.6089992889592396    -1.0736154882131534    2.6417394024488448
C    -2.0847096877330835    -0.2165127185626916    4.9219048542850565
O    -2.8903036575612235    0.5334860597005613    5.473159050078763
N    -0.8375584280975075    -0.3520785140496545    5.360626463831911
H    -0.21117713031785879    -0.9792766397610281    4.8765097620997535
C    -0.3502404991684661    0.3812342950068365    6.52275277375609
H    -1.1574929314806959    0.4291540904138113    7.253606523650104
H    0.5075197254988145    -0.1573928072774725    6.925528445394217
C    0.07362549059887452    1.7963235989225574    6.143958786657731
O    -0.44318424579379273    2.4006065800050456    5.204219048675026
N    1.0327017832310783    2.3400433666179064    6.886105995187268
H    1.4277132602590978    1.8066593533585147    7.647399254986308
C    1.5293611802502856    3.686644828151257    6.629672871061774
H    1.2733286105609711    4.309046515809236    7.487089608977933
H    2.6100981764415394    3.628138072787868    6.500504358488646
C    0.9008500237871809    4.2759346661341695    5.371365987566542
O    0.18767959127295453    5.278605748870031    5.408777670671794
N    1.1668559520627273    3.6454238261715752    4.232095200259184
H    1.757367710444405    2.826220110804626    4.249448469172152
C    0.6282370512224856    4.105769625778338    2.9578364257388507
H    0.3145670086581708    5.14253916423226    3.0795739652726457
H    1.4164280911978984    4.023269209828184    2.209472499650394
C    -0.5676328910226304    3.262809878398115    2.5277911426216733
O    -1.1767164388012041    3.4840090178494165    1.4811540648667003
N    -0.9148308585013539    2.275799717694163    3.347245542845262
H    -0.3841902979343029    2.1337063752564847    4.194789097782691
C    -2.036083364239687    1.3934866129303805    3.060876601698151
H    -1.6619394318997316    0.42897835467037726    2.7175980884739026
C    -4.292432460838818    -2.9090302140371906    4.310712348082198
C    -4.783058401449417    -1.9882053075826573    3.394030992082555
C    -4.337922887393539    -0.6771172005322432    3.4195739130392298
C    -3.3858137699550976    -0.26104874475219964    4.3462767672853415
C    -2.9087848264651286    -1.1882939087295497    5.265212873107461
C    -3.359111797277515    -2.50288863419171    5.252145706170048
H    -4.633878085161529    -3.9355023112088    4.285338092844825
H    -5.516509201266228    -2.2865481807220998    2.65369863612344
H    -4.7253228759082555    0.03581341295374673    2.7022787814777542
H    -2.1712985703016248    -0.8796196022899742    5.995961737281487
H    -2.9816505122570316    -3.2113380116045542    5.978899867572863
C    -2.877203723726529    1.154658265000729    4.316415355015594
H    -3.7028323242081    1.866846230452274    4.295427548638581
H    -2.2575599954547214    1.3721918598632792    5.185034138966937
C    -2.8811127087474717    2.0364047969595487    1.9662503570075804
O    -3.811659981038444    2.7991593392847576    2.2263431908075373
N    -2.5557668878648974    1.726378040836793    0.7155407554924065
H    -3.0776815482182895    2.119954865783942    -0.054395845905867435
H    -1.7865991958400227    1.0971902123652022    0.5349757033689909
