54
fragments fixed, E = -39147.264128 eV
N    -2.0520516574601    0.3663377683938727    3.9774786126578596
H    -2.8622264073953283    0.9023089473195285    4.2668768409854
H    -1.39748355442824    0.39685459986654054    4.753727072003196
C    -2.433997046257822    -1.0243476653088055    3.7550556328636477
H    -3.2742036273069806    -1.034740545921162    3.055164569749644
N    0.9892702400423287    -4.502009175815592    -0.753909654643119
H    1.0975226001957368    -3.4820698028847126    -0.6823719434061016
H    1.605062693661922    -4.977629742201972    -1.39165631947001
C    -0.12826210335370025    -5.099966347289514    -0.3683003229674298
N    -0.4930403134764921    -6.265257619443223    -0.9223567674686219
H    -1.1919276696540382    -6.8467519530962475    -0.4946810801023922
H    -0.0754489688467595    -6.585157659285854    -1.7781038261894984
N    -0.9008086350193714    -4.563496668155164    0.5727012666143685
H    -1.7952962975561122    -5.000073628691646    0.7346858267255573
C    -0.46604010685584835    -3.565813026266058    1.5614591423407462
H    0.16855101619115695    -4.052827401623433    2.3063413647335502
H    0.12873064933239586    -2.8068632565168463    1.05905171573867
C    -1.6703348647425063    -2.9117518104059577    2.21866963810215
H    -2.247320411826122    -3.665987605451234    2.763302794154241
H    -2.3220749856309424    -2.5022912972641467    1.4432774634220285
C    -1.2408012741030352    -1.795854200236265    3.1628520357725365
H    -0.685012476363151    -2.181656841569932    4.018129887649265
H    -0.6089992889592396    -1.0736154882131534    2.6417394024488448
C    -2.8259815498949346    -1.7076192456173236    5.070651798492252
O    -2.0681320587549363    -1.6674188327340584    6.027152553903251
N    -4.02962248375322    -2.326293312637709    5.102309502048901
H    -4.516358783872874    -2.4647532494437088    4.229271040979718
C    -4.393584243964261    -3.1815993266866522    6.204011145292969
H    -3.599734767991377    -3.109879860389436    6.949720150599098
H    -5.325235362352814    -2.8502117936099642    6.668131370435417
C    -4.524355792365047    -4.625056378779369    5.7278330208029775
O    -4.013659267790744    -5.0006767725336445    4.689204713061997
N    -5.257851967107697    -5.443171736105905    6.520542240799354
H    -5.690931032119154    -5.067163282636296    7.345255472965771
C    -5.64562904895651    -6.758143678495804    6.035781017475782
H    -4.764710930561332    -7.341855046934779    5.78117992779623
H    -6.192846157595093    -7.273181139410909    6.82426704727889
C    -6.496976133249474    -6.70311081737777    4.756742378155293
O    -6.32035176208287    -7.52218923097333    3.880700533825178
N    -7.3858956171736025    -5.687929388917157    4.712835048013188
H    -7.485108903370693    -5.119260169451464    5.53312351542701
C    -8.082311259258304    -5.252989729357298    3.507574250874606
H    -8.545350195475509    -4.2890934948662    3.737888114789146
O    -6.625113390067254    -3.7589224174388995    0.3990322761737076
C    -7.466687201907631    -3.964734057500037    1.3085619679436657
C    -7.065232055557264    -4.989546192930536    2.3876086939972567
H    -6.7670412926101475    -5.9287631090012125    1.9192927429427546
H    -6.201898342312742    -4.608512976175139    2.936128811623874
O    -8.586640768263367    -3.4191619904955295    1.4466443706786605
C    -9.241998613654022    -6.194134323430736    3.163858991399941
O    -9.55356623519907    -7.138750851330707    3.869181979945179
N    -9.887858916194407    -5.8292773739824995    2.038509717973063
H    -10.720538151270011    -6.332740326676817    1.7913381161871769
H    -9.647349520157114    -4.932519452433317    1.6050153342289453
