47
fragments fixed, E = -33485.532473 eV
N    -3.4438408429390304    -1.8958662985372372    4.302009203722197
H    -3.9314101580112903    -1.4180937836682088    5.047289781668422
H    -4.150099993177453    -2.211438279824135    3.648514842830624
C    -2.4649957556331086    -1.0165910853089084    3.6465152134322945
H    -2.128264687213973    -0.2922078776225091    4.390968703089636
N    0.9892702400423287    -4.502009175815592    -0.753909654643119
H    1.0975226001957368    -3.4820698028847126    -0.6823719434061016
H    1.605062693661922    -4.977629742201972    -1.39165631947001
C    -0.12826210335370025    -5.099966347289514    -0.3683003229674298
N    -0.4930403134764921    -6.265257619443223    -0.9223567674686219
H    -1.1919276696540382    -6.8467519530962475    -0.4946810801023922
H    -0.0754489688467595    -6.585157659285854    -1.7781038261894984
N    -0.9008086350193714    -4.563496668155164    0.5727012666143685
H    -1.7952962975561122    -5.000073628691646    0.7346858267255573
C    -0.46604010685584835    -3.565813026266058    1.5614591423407462
H    0.16855101619115695    -4.052827401623433    2.3063413647335502
H    0.12873064933239586    -2.8068632565168463    1.05905171573867
C    -1.6703348647425063    -2.9117518104059577    2.21866963810215
H    -2.247320411826122    -3.665987605451234    2.763302794154241
H    -2.3220749856309424    -2.5022912972641467    1.4432774634220285
C    -1.2408012741030352    -1.795854200236265    3.1628520357725365
H    -0.685012476363151    -2.181656841569932    4.018129887649265
H    -0.6089992889592396    -1.0736154882131534    2.6417394024488448
C    -3.0768470258546587    -0.21409950018922427    2.4764282610530755
O    -2.805454191041852    -0.43119032666757134    1.3104455063554012
N    -3.9695121855479956    0.7320571767903962    2.854269241786601
H    -4.111014999918079    0.8790113408208817    3.8398209337971503
C    -4.378229171375855    1.8066618596640296    1.9685517920533047
H    -3.7898096139030004    1.7291756042727287    1.0528623085505393
H    -5.438193917269169    1.7543935481112172    1.7251195055440176
C    -4.0921901062491    3.190042849014704    2.543511796931544
O    -4.772133992866578    4.121555747783315    2.1407115878003413
N    -3.131126415591434    3.193325022474078    3.4941726710440744
H    -2.608894283544361    2.334615531419638    3.4077466968390935
C    -2.144973492952772    4.2006788973221685    3.9329805486196805
H    -2.1861965795482647    4.179995275693739    5.028508499419018
C    -0.44693269586614004    3.0535825946400084    2.204385873586276
O    -1.4166488295058113    2.9891221848354497    1.4060324346122928
O    0.7172543602532868    2.6363169853465966    2.027558399499862
C    -0.714225833324586    3.7451688286999127    3.556112976462893
H    -0.3265483856778186    3.1289574968061373    4.369457756353044
H    -0.16797729802003333    4.6909312528885    3.5762011215948846
C    -2.3625052837886122    5.706235379489304    3.6983868190546194
O    -1.4271237044135807    6.455393178208129    3.9246686561369146
N    -3.6090093319680667    6.161333702827851    3.448918706085692
H    -3.6604029113224166    7.1557803920692375    3.3007202608956994
H    -4.25905932473691    5.551729320932163    2.954851851367632
