47
free relaxation, E = -33488.357464 eV
N    -1.9460851928284462    -0.9766416816821015    5.465608795465204
H    -2.448688245322585    -0.3521337841173437    6.081961344728449
H    -2.4179027894289615    -1.8730663728684014    5.460481172924344
C    -1.779684238563325    -0.4226478690854882    4.1310709124405
H    -1.3310183488179017    0.567262226070664    4.234443878364142
N    -0.33803673933449746    -4.8058116136511115    -0.6279479227798809
H    0.22764281822353094    -3.996605379212912    -0.4454959414400375
H    -0.3376027729450419    -5.173533635417577    -1.5622778460623887
C    -1.303811905539424    -5.155067954911237    0.23896259455871463
N    -2.113414636758456    -6.17517468755564    -0.035640621967686775
H    -2.884204033252266    -6.3596284784123345    0.608339756885083
H    -1.9839373445001296    -6.732382869446409    -0.8592707532507387
N    -1.443191462381364    -4.503822601823809    1.3763043489599935
H    -2.1828273339229067    -4.863941246670705    1.9833367363382992
C    -0.7846276754279666    -3.243953893471224    1.7084371676125487
H    0.2857053033976947    -3.408689547326874    1.8757287897481185
H    -0.9064359235953299    -2.5383371097801266    0.8798604140939843
C    -1.4355865100722969    -2.648578747447597    2.9462599560575162
H    -1.335149149719378    -3.352622958187899    3.778535837037707
H    -2.505724586253069    -2.5451334540554393    2.7335619349430313
C    -0.8259146364441962    -1.2905280066151326    3.3033159407598927
H    0.1032411813717731    -1.4205541100761512    3.85994933184333
H    -0.6071003129150296    -0.7417732333345315    2.3869530252020357
C    -3.0349389185891185    -0.24318508068271108    3.2585366103230955
O    -2.9069496895151117    0.13986622819605385    2.105103085263354
N    -4.216726641157664    -0.595385654553434    3.805929506345276
H    -4.215133280655483    -1.0043508695703462    4.727395775520259
C    -5.342480564003468    -1.0174318637079334    2.981015144043245
H    -6.252806320137877    -0.4948918905988711    3.2792361946125785
H    -5.111219418274225    -0.7899739439866809    1.94578054899666
C    -5.525926745718689    -2.5136789604090315    3.2144204726487153
O    -5.662402906564239    -2.867976899887047    4.41949783402048
N    -5.463533748107501    -3.2753895022146695    2.1429546010146394
H    -6.605638118469507    -3.107532492620869    0.8355915604509934
C    -5.709215489128855    -4.703195677186173    2.3535050862602978
H    -6.521482385525155    -4.85489964223049    3.075844883282427
O    -7.35227756627524    -3.4708177244338856    0.28100325836798007
C    -7.294435121918147    -4.800778028141707    0.3440609642437957
C    -6.055094750079416    -5.363486380277357    1.0216165627113754
H    -6.201019335477879    -6.436218842222177    1.1329513887923257
H    -5.219761088765746    -5.198423442173548    0.33477776972325196
O    -8.14091370611549    -5.503109334602552    -0.14559748378713647
C    -4.456667796085574    -5.342946091870507    2.9443906209307475
O    -3.628295858100874    -5.981131157842628    2.263858142691137
N    -4.277912079513794    -5.129682614394513    4.245711479196881
H    -3.431474909502761    -5.473751867241879    4.669991172249672
H    -4.858526950260498    -4.385515630645497    4.666163933178526
