64
condensed pair, closure 0.000 A, charge 1
N    0.856782521099491    -1.4273501443951573    1.9407823936187396
H    1.348243452476436    -0.7949382960847131    1.3254601958664778
H    1.451518397129906    -1.6672502558387479    2.7210625832248114
C    -0.35554593013996527    -0.7838825786372172    2.432690126972152
H    -0.9244105940787886    -0.3819295324458585    1.594282861510278
N    0.9892702400423287    -4.502009175815592    -0.753909654643119
H    1.0975226001957368    -3.4820698028847126    -0.6823719434061016
H    1.605062693661922    -4.977629742201972    -1.39165631947001
C    -0.12826210335370025    -5.099966347289514    -0.3683003229674298
N    -0.4930403134764921    -6.265257619443223    -0.9223567674686219
H    -1.1919276696540382    -6.8467519530962475    -0.4946810801023922
H    -0.0754489688467595    -6.585157659285854    -1.7781038261894984
N    -0.9008086350193714    -4.563496668155164    0.5727012666143685
H    -1.7952962975561122    -5.000073628691646    0.7346858267255573
C    -0.46604010685584835    -3.565813026266058    1.5614591423407462
H    0.16855101619115695    -4.052827401623433    2.3063413647335502
H    0.12873064933239586    -2.8068632565168463    1.05905171573867
C    -1.6703348647425063    -2.9117518104059577    2.21866963810215
H    -2.247320411826122    -3.665987605451234    2.763302794154241
H    -2.3220749856309424    -2.5022912972641467    1.4432774634220285
C    -1.2408012741030352    -1.795854200236265    3.1628520357725365
H    -2.10926014204615    -1.2599788861930645    3.542820834768217
H    -0.685012476363151    -2.181656841569932    4.018129887649265
C    0.04682684646278551    0.34875828031947353    3.371224001305328
O    0.7555722314578717    0.15449722850403397    4.358798617724627
N    -0.41120407482090715    1.5574816525178294    3.062296041014508
H    -0.9897338096260517    1.6695308698782885    2.24202272142207
C    -0.10009964655335574    2.7259539607973027    3.8769435104737586
H    0.16095267677442981    3.5444422767956283    3.2061018294048265
H    -0.9844716738247017    2.971906719683045    4.464730340690685
C    1.0696194513810517    2.448475332832892    4.815233360653597
O    0.9132125927724662    2.3199279616404573    6.0294711742386085
N    2.2674634062446    2.353333971774097    4.247466699768394
H    2.348029853211867    2.4659177999024076    3.246999844111973
C    3.4682749350584583    2.0906294826094025    5.031559821559703
H    4.203428379332514    1.6241976216662184    4.375746789919531
H    3.836385861360221    3.0429635227881686    5.413206545447184
C    3.170274675180865    1.1583600350988368    6.201044546706308
O    2.213121760143854    1.3431911636207612    6.952747114990776
N    4.002700321216563    0.13501510189231491    6.362518047636307
H    4.774813476721642    0.022963310926295583    5.721124509130269
C    3.8300924083201275    -0.8300813056874798    7.4416655928605335
H    3.390861342138569    -0.3370558580267537    8.308903725359302
C    4.1556876074106865    -3.7835312443700593    3.4163672335472395
C    5.129036607963831    -3.341492582194848    4.26930401274674
C    4.6913851560934425    -2.726920153527842    5.441298589092671
C    3.3328811321184935    -2.574126442457316    5.711450982102379
C    2.402076154768857    -3.0254332080745674    4.778497795634135
C    2.8079310114890688    -3.6435089022221585    3.5938949239622846
H    6.18446173840121    -3.450961011750294    4.058145157466032
H    5.42131829476264    -2.362659726054509    6.156049874780157
H    1.342565989185355    -2.8969655848398768    4.973280545677201
H    2.085420421739104    -3.9969120657167196    2.869008581266445
C    2.8870783379774427    -1.9545852933550074    7.0090973960920335
H    2.872427101596511    -2.696893842853912    7.809725502798206
H    1.8823976969597551    -1.5433228123003753    6.925582636010076
H    2.7814257037102452    -3.169871941649232    -3.4138808439853805
O    3.005672565562057    -2.2807868037637045    -3.125331020466319
H    2.422274958667677    -2.1202565229211703    -2.3680979606881967
C    5.1991832438039385    -1.3927157461171045    7.8086230435774855
O    5.336914587413924    -2.534611203366408    8.247332334225396
N    6.235158753274916    -0.5801183249563743    7.627843689393222
H    7.168490626541539    -0.8941634829436125    7.8522701875822465
H    6.089137086603995    0.3514764157038036    7.266030323088241
