66
free relaxation, E = -43895.642218 eV
N    -2.31350131015793    -2.02561174079366    5.075685640319332
H    -2.2850612387398446    -1.4531673049614502    5.908170625661239
H    -3.1156142999851357    -2.6445799039870446    5.159113397781104
C    -2.487989907974267    -1.2092442023817935    3.8852662450504494
H    -2.408661872432669    -0.1459884027788878    4.124651228700769
N    1.060986179149407    -4.706765077110406    -0.5780105216023924
H    1.4978125833083202    -4.011283157643477    0.0017927423921935675
H    1.575882509757448    -5.042705137536604    -1.3723691784057177
C    -0.1513807474368144    -5.174744527725572    -0.28089490714361726
N    -0.6652979969162515    -6.187062168914393    -0.9855278679001168
H    -1.6040433064758046    -6.50569521862075    -0.820738786993407
H    -0.1217731892537448    -6.681555392138793    -1.6700283635706967
N    -0.8418864911546139    -4.624548185801416    0.7009776318987108
H    -1.728613631651754    -5.034146947607039    0.9521877132008105
C    -0.4619400043200429    -3.3840627640819014    1.390363753885366
H    0.4516893503613311    -3.5480748803753466    1.9686181854966869
H    -0.2737962242754753    -2.612442276826787    0.6388220065361229
C    -1.5905566803262543    -2.961266717754918    2.3106130775332927
H    -1.662815902156489    -3.6600958251521374    3.1473368772992782
H    -2.5300720550220124    -3.0104027616829434    1.7520193981083754
C    -1.4024634959217284    -1.5486769730775831    2.8462276868052614
H    -0.43740723303028944    -1.458206905659818    3.347520171905433
H    -1.416245662494975    -0.8357376355867034    2.015993784028394
C    -3.862354626780418    -1.47030645208422    3.2555791419546196
O    -4.56413534839433    -2.398606229065584    3.6237774666345177
N    -4.206100865366726    -0.6610782259157729    2.2333204046592297
H    -3.529376941016732    -0.0285940657296131    1.8316594403974866
C    -5.350683650942312    -0.9463171463694764    1.4041777249722573
H    -5.4856851712897905    -2.028106428999328    1.3219501202372295
H    -6.269687417941603    -0.5406101382532248    1.832283777446867
C    -5.0984080839531245    -0.36837861061940935    0.020701225733899042
O    -3.9700721616188552    -0.06045636208345471    -0.3441311413029593
N    -6.184646538588673    -0.2402009774236977    -0.7480642867525655
H    -7.114530885625953    -0.43713875770131494    -0.40192529273064737
C    -6.118726255670313    0.27072522459476356    -2.0899704745470467
H    -5.579713581231748    1.2221664243489812    -2.1179293298999227
H    -5.593590746892451    -0.42842824555815634    -2.7456174083216647
C    -7.552251560812623    0.4552067704778497    -2.5757431625690903
O    -8.494895108577845    0.3339586924355525    -1.8182799692471305
N    -7.671495768418597    0.7876924619008089    -3.8875170785897115
H    -6.822502320030897    0.789685807956092    -4.429568087547417
C    -8.91549774433962    0.6824450373504939    -4.652324922632215
H    -8.751767216466307    1.2730899351591605    -5.558825319572027
C    -6.916239384434729    -2.6811289613487967    -3.7173718650636887
C    -8.254449860670446    -2.4758626008187807    -3.362116943651525
C    -8.755226295316982    -3.107356861794227    -2.2033040174265173
C    -7.96152777929723    -3.9222857257888823    -1.3988850676517133
C    -6.642026115992641    -4.0935636410874405    -1.7673352729940441
C    -6.122382108509529    -3.4806208527505142    -2.9194538206272496
H    -6.510864768388841    -2.2271770099142376    -4.615585721538247
H    -8.362835981835843    -4.407021298895759    -0.5178137301055107
H    -6.003199705021478    -4.729475678541832    -1.1667904758667578
H    -5.089696994372016    -3.65385046796686    -3.1959271549047874
C    -9.331996391862019    -1.7087307212666296    -3.9260692224411384
C    -10.410994106051554    -1.9164493673995098    -3.122770780004919
H    -11.394632944414688    -1.4833088028485308    -3.1930900191722595
N    -10.074675977159696    -2.7543061367377355    -2.0879229416371485
H    -10.70056198712064    -3.0499330114450203    -1.361724097027915
C    -9.245302680047612    -0.7574125200945159    -5.07602157546906
H    -8.473850121855188    -1.0898296081287613    -5.776920240317986
H    -10.187391923690349    -0.727454056902873    -5.623191602355677
C    -10.113932104075882    1.3618713372644138    -3.9729237852117434
O    -11.23173686721175    0.9114193434201779    -4.1048779002442535
N    -9.863700481388147    2.5508337616116097    -3.369283431744583
H    -10.630360740850858    2.9462798842804774    -2.849628497986289
H    -8.9325666061581    2.7684660877434624    -3.0620873458903755
