64
condensed pair, closure 0.031 A, charge 2
N    -3.680890749582609    -1.7980136538908527    3.4368336332480243
H    -4.359825810531719    -1.6004006457027071    4.1580106448123555
H    -4.057489467836749    -1.5313747950731655    2.5384032662313363
C    -2.461033213839328    -1.0429202409568479    3.6967288625886328
H    -2.332109292427021    -0.9112840076403926    4.7710428411656265
N    0.9892702400423287    -4.502009175815592    -0.753909654643119
H    1.0975226001957368    -3.4820698028847126    -0.6823719434061016
H    1.605062693661922    -4.977629742201972    -1.39165631947001
C    -0.12826210335370025    -5.099966347289514    -0.3683003229674298
N    -0.4930403134764921    -6.265257619443223    -0.9223567674686219
H    -1.1919276696540382    -6.8467519530962475    -0.4946810801023922
H    -0.0754489688467595    -6.585157659285854    -1.7781038261894984
N    -0.9008086350193714    -4.563496668155164    0.5727012666143685
H    -1.7952962975561122    -5.000073628691646    0.7346858267255573
C    -0.46604010685584835    -3.565813026266058    1.5614591423407462
H    0.16855101619115695    -4.052827401623433    2.3063413647335502
H    0.12873064933239586    -2.8068632565168463    1.05905171573867
C    -1.6703348647425063    -2.9117518104059577    2.21866963810215
H    -2.247320411826122    -3.665987605451234    2.763302794154241
H    -2.3220749856309424    -2.5022912972641467    1.4432774634220285
C    -1.2408012741030352    -1.795854200236265    3.1628520357725365
H    -0.685012476363151    -2.181656841569932    4.018129887649265
H    -0.6089992889592396    -1.0736154882131534    2.6417394024488448
C    -2.5847973879125603    0.31953193265226476    3.0229102639704473
O    -1.7057688660687773    0.7616576113840459    2.283184137629694
N    -3.695639285945213    1.0024036010710582    3.2797323075067197
H    -4.38985571144675    0.5999086514778182    3.893052264882806
C    -3.938019447749498    2.3175927142821386    2.6989625995718276
H    -3.8270686151555386    3.0603127140237    3.488998620732004
H    -3.2040987694203626    2.4774537181411738    1.9090860919036459
C    -5.342057288346714    2.4105785173289376    2.1110371088820217
O    -6.296155699338186    1.8117639798906904    2.607502990787481
N    -5.477001430274926    3.1748695469620394    1.0321996324372926
H    -4.665919412368233    3.647461130904452    0.6595024966618658
C    -6.76567979882631    3.348734786596632    0.37277341148869425
H    -7.542835859748925    3.008231287511263    1.057014468486786
H    -6.886376658818025    4.407391646010845    0.14303895172400247
C    -6.8383228840753025    2.5397113290587328    -0.9178965801508918
O    -5.849496724674736    2.3578983850689927    -1.6281978400983235
N    -8.029894728572046    2.0421185212798982    -1.2322195622082108
H    -8.813282071599724    2.2196703213504425    -0.6199454168486793
C    -8.241295747471053    1.2320521951303058    -2.459175384537766
H    -9.296537825716982    0.9790195489846086    -2.5618332448491916
N    -2.98965419167988    1.070835641766168    -2.9644319150640768
H    -2.0507009107564356    1.4145825389560407    -2.7551088947160762
H    -3.250977373615515    0.4513295586510292    -2.1796602326433208
C    -4.007735367129729    2.1746486004047085    -3.0846689048127045
H    -3.678476357996471    2.841249719042652    -3.880222480394362
H    -3.9873657882047246    2.706555058243069    -2.1358202326012656
C    -5.372544515979213    1.578326089113671    -3.3549836342431103
H    -5.3383776691599625    0.9835380103607897    -4.27423678945064
H    -5.630172450309214    0.899288227069773    -2.5363939792798944
C    -6.448128471193208    2.6526361516017913    -3.4888090231731343
H    -6.202950774486346    3.303663027382036    -4.331204259282912
H    -6.451226053290126    3.282789344144308    -2.594599284919839
C    -7.826109495357071    2.0374273920007635    -3.692014047267572
H    -8.581118135851536    2.804815319697454    -3.8587829403778358
H    -7.834053787209995    1.369105101537057    -4.555345894443767
H    -2.941970697754408    0.5129937680876749    -3.8184091698786484
C    -7.414387418024615    -0.04480630097136484    -2.352030643065862
O    -7.114478760188093    -0.7106638322005994    -3.343014772636061
N    -7.035957329482957    -0.3978038520121086    -1.1279291778900418
H    -6.486121025650808    -1.2338391495281842    -0.9907248765893617
H    -7.298198155943341    0.16996393116901515    -0.3348532084400986
