43
fragments fixed, E = -32061.489491 eV
N    -5.813248020399412    -5.410678558484483    4.388292599355878
H    -6.0727968025707355    -5.1170045222192755    5.326764857239943
H    -6.314477856724351    -6.266498892612739    4.189790902380228
C    -6.242410214478992    -4.37553373150409    3.448999566105655
H    -5.404545555448611    -3.973229912844182    2.9120068862478723
O    -6.625113390067254    -3.7589224174388995    0.3990322761737076
C    -7.466687201907631    -3.964734057500037    1.3085619679436657
C    -7.065232055557264    -4.989546192930536    2.3876086939972567
H    -7.888143088824324    -5.16219107999311    3.079819834415865
H    -6.7670412926101475    -5.9287631090012125    1.9192927429427546
O    -8.586640768263367    -3.4191619904955295    1.4466443706786605
C    -6.957419142006106    -3.1962062018465285    4.368330871755652
O    -7.070863377253641    -3.434092181986153    5.555682829776242
N    -7.2847400069489066    -1.9411283959612797    3.8825597916842
H    -7.439589009770102    -1.8829093831061539    2.8869175579854702
C    -7.341383294373063    -0.6784529750663761    4.650064595603824
H    -7.983159143675086    -0.010703246897957014    4.0723972328416025
H    -7.828978064524061    -0.8833654101488496    5.601824159485492
C    -6.055698267850549    0.1700766451341741    5.140409229737686
O    -5.589956674773927    -0.06874701869281229    6.2315810886612715
N    -5.6120011472098845    1.2765277883164552    4.408030511698436
H    -6.063710343345403    1.46319035469172    3.524670492154752
C    -4.31342985874661    1.9671159378470187    4.569104578236728
H    -4.249650648167675    2.2675370714114    5.615770645554684
C    -4.292432460838818    -2.9090302140371906    4.310712348082198
C    -4.783058401449417    -1.9882053075826573    3.394030992082555
C    -4.337922887393539    -0.6771172005322432    3.4195739130392298
C    -3.3858137699550976    -0.26104874475219964    4.3462767672853415
C    -2.9087848264651286    -1.1882939087295497    5.265212873107461
C    -3.359111797277515    -2.50288863419171    5.252145706170048
H    -4.633878085161529    -3.9355023112088    4.285338092844825
H    -5.516509201266228    -2.2865481807220998    2.65369863612344
H    -4.7253228759082555    0.03581341295374673    2.7022787814777542
H    -2.1712985703016248    -0.8796196022899742    5.995961737281487
H    -2.9816505122570316    -3.2113380116045542    5.978899867572863
C    -2.877203723726529    1.154658265000729    4.316415355015594
H    -2.276804723671924    1.3251360089577746    3.420200914930589
H    -2.2575599954547214    1.3721918598632792    5.185034138966937
C    -4.384869725461484    3.2296637258992633    3.724689678939983
O    -5.328850448114457    3.5159898172348267    3.01643855403902
N    -3.2952272143930066    4.04635992023199    3.831782501544618
H    -3.242906364254304    4.803195625349883    3.170450208625351
H    -2.434332866968866    3.6768334136826626    4.194217931776919
