43
condensed pair, closure 0.176 A, charge -1
N    -5.324244746840086    -5.479422642422386    4.048358970968623
H    -6.037317510126047    -5.753772423291514    4.708934047698578
H    -5.0400235302978205    -6.283462009421678    3.5072129681351805
C    -5.855079036349588    -4.4554439210036705    3.1564808766291352
H    -5.093908334157889    -4.169943920867434    2.4303893451765197
O    -6.625113390067254    -3.7589224174388995    0.3990322761737076
C    -7.466687201907631    -3.964734057500037    1.3085619679436657
C    -7.065232055557264    -4.989546192930536    2.3876086939972567
H    -7.888143088824324    -5.16219107999311    3.079819834415865
H    -6.7670412926101475    -5.9287631090012125    1.9192927429427546
O    -8.586640768263367    -3.4191619904955295    1.4466443706786605
C    -6.247203461234783    -3.242916881306998    3.9941213803136697
O    -6.520098363032712    -3.339573417998336    5.190594065537839
N    -6.27755316105699    -2.0759428533917887    3.358911561519868
H    -6.045918577155282    -2.044481577262609    2.3763355554801286
C    -6.636599673674393    -0.8399403773029639    4.043854975883109
H    -7.23206351167336    -0.23611516089448792    3.3590791544168446
H    -7.211688268125523    -1.1018402787227652    4.931988721536612
C    -5.394492659646549    -0.05813365098685208    4.458069181807672
O    -4.545270517845313    -0.5367457345009022    5.2098093146919435
N    -5.281001886511828    1.1692951083485235    3.9613001357010287
H    -6.00952328245108    1.50640423771619    3.3483449900698843
C    -4.035521584736131    2.153824282623477    4.28697045572828
H    -4.091057019232562    2.634010979156542    5.263923142396347
C    -4.292432460838818    -2.9090302140371906    4.310712348082198
C    -4.783058401449417    -1.9882053075826573    3.394030992082555
C    -4.337922887393539    -0.6771172005322432    3.4195739130392298
C    -3.3858137699550976    -0.26104874475219964    4.3462767672853415
C    -2.9087848264651286    -1.1882939087295497    5.265212873107461
C    -3.359111797277515    -2.50288863419171    5.252145706170048
H    -4.633878085161529    -3.9355023112088    4.285338092844825
H    -5.516509201266228    -2.2865481807220998    2.65369863612344
H    -4.7253228759082555    0.03581341295374673    2.7022787814777542
H    -2.1712985703016248    -0.8796196022899742    5.995961737281487
H    -2.9816505122570316    -3.2113380116045542    5.978899867572863
C    -2.877203723726529    1.154658265000729    4.316415355015594
H    -2.276804723671924    1.3251360089577746    3.420200914930589
H    -2.2575599954547214    1.3721918598632792    5.185034138966937
C    -3.8049113846595626    3.207191851408537    3.2086102651367985
O    -4.612528268936274    3.3941358636376076    2.298572955724226
N    -2.682437530424912    3.91186991939811    3.307211822193934
H    -2.4720137460943192    4.624781671728385    2.6234145829648132
H    -2.039814969550843    3.734492289467735    4.065943277094767
