43
free relaxation, E = -32066.574747 eV
N    -6.690077246695279    -5.084628827084211    4.356018987864436
H    -6.5809802228053895    -5.074971739111008    5.366794455883845
H    -7.638159981676475    -5.408736057036001    4.185857551159535
C    -6.577693685219855    -3.6980092896177528    3.8997729967007233
H    -5.509927371120902    -3.4450874834592002    3.8957414966080717
O    -5.7288100347622715    -2.823714495362499    0.6592853197734929
C    -6.395388459822475    -2.4624655850361923    1.632214149810809
C    -7.099935453251146    -3.560862245060465    2.4628152841417252
H    -8.178658901219277    -3.372240342837951    2.4700629614665743
H    -6.919818627550997    -4.509563428246311    1.9603714634703717
O    -6.5502789746523655    -1.259792600455946    2.034663052380925
C    -7.168208292097404    -2.730959656215492    4.93412956075208
O    -7.144963623268895    -3.0124471458086433    6.127418673745052
N    -7.652240092000564    -1.5653964703245236    4.447057147622326
H    -7.440466882638042    -1.3898583385652774    3.446227408326308
C    -7.768938215234852    -0.4209753596447998    5.3119518691639955
H    -8.628903181884645    0.19113750884317263    5.027282963228031
H    -7.914718433427317    -0.7509861890676323    6.338234124979901
C    -6.550454945162995    0.4966304775616614    5.314005939951966
O    -6.370918398228239    1.262532311726207    6.265607876474191
N    -5.74112068408358    0.4470615539518206    4.2438133972507925
H    -5.9475408781216945    -0.1817811714010236    3.461621410619603
C    -4.489764928843094    1.1899874802094825    4.175991381067008
H    -4.058895539620323    1.1894719028886869    5.181494886173343
C    -2.469776821155264    -3.5271612414573017    4.1399326627607875
C    -3.0413529806667876    -3.2199528150207635    2.914427801576618
C    -3.388604116371869    -1.9087511288877652    2.6129567829853393
C    -3.1667318485670366    -0.8871302404986804    3.5302402478260793
C    -2.5859861221229763    -1.204367269427232    4.756890773635019
C    -2.242012871773511    -2.5129093462821674    5.062108541044905
H    -2.2198250175014875    -4.552257701708848    4.384384334741288
H    -3.253668325511525    -3.9973817229504496    2.191074364279845
H    -3.877080413275594    -1.6961155624276973    1.6694659102824785
H    -2.406507234975903    -0.4222921894624056    5.487518434424369
H    -1.8033367846661184    -2.7426009246096816    6.025739941392699
C    -3.5407429566194164    0.5329987703850382    3.1810330470319967
H    -4.000261783541206    0.5563783523056499    2.191774144496472
H    -2.6481520790751207    1.1599604976261646    3.123860702498617
C    -4.717622233692548    2.6654421805062056    3.7938924372280494
O    -4.312455251230821    3.147904858474956    2.752243667621826
N    -5.370550293054151    3.381531617627676    4.739316097135255
H    -5.650966584794828    4.315785567666692    4.497833378287668
H    -5.787958207724478    2.889401597194032    5.524387258100123
