90
RGGDGGK, worst junction 0.006 A, charge 1
N    0.8749520747759737    -2.756470682519299    3.9565213422314147
H    1.3732914601411932    -1.967222592030272    3.570716587655684
H    1.3757376683251592    -3.110650042738276    4.758936926631709
C    -0.4610330382374749    -2.337132913028569    4.362801556966248
H    -0.38697348239433316    -1.540783301468313    5.103370580323387
N    0.9892702400423287    -4.502009175815592    -0.753909654643119
H    1.0975226001957368    -3.4820698028847126    -0.6823719434061016
H    1.605062693661922    -4.977629742201972    -1.39165631947001
C    -0.12826210335370025    -5.099966347289514    -0.3683003229674298
N    -0.4930403134764921    -6.265257619443223    -0.9223567674686219
H    -1.1919276696540382    -6.8467519530962475    -0.4946810801023922
H    -0.0754489688467595    -6.585157659285854    -1.7781038261894984
N    -0.9008086350193714    -4.563496668155164    0.5727012666143685
H    -1.7952962975561122    -5.000073628691646    0.7346858267255573
C    -0.46604010685584835    -3.565813026266058    1.5614591423407462
H    0.16855101619115695    -4.052827401623433    2.3063413647335502
H    0.12873064933239586    -2.8068632565168463    1.05905171573867
C    -1.6703348647425063    -2.9117518104059577    2.21866963810215
H    -2.247320411826122    -3.665987605451234    2.763302794154241
H    -2.3220749856309424    -2.5022912972641467    1.4432774634220285
C    -1.2408012741030352    -1.795854200236265    3.1628520357725365
H    -2.10926014204615    -1.2599788861930645    3.542820834768217
H    -0.6089992889592396    -1.0736154882131534    2.6417394024488448
C    -1.1795414604735175    -3.537909661974535    4.969024161598102
O    -0.9451636431975705    -4.689422422747704    4.602354827530585
N    -2.073132416695791    -3.270464085982412    5.915707354033673
H    -2.2325757507416424    -2.310040676467109    6.184528293849274
C    -2.8292328362635075    -4.327715448007654    6.576234199078819
H    -2.1225984402455937    -4.966723918968622    7.105796286472284
H    -3.5264120653429205    -3.859508884564984    7.271089390100258
C    -3.6073324998895098    -5.163336032562764    5.56533155681653
O    -4.828976681970111    -5.069292502662033    5.446578422658194
N    -2.891513255210582    -5.998863873858602    4.819853833898665
H    -1.8911538266512302    -6.042354764413606    4.952101919446775
C    -3.513031924444343    -6.854330773421209    3.816033666963055
H    -2.860221604630813    -6.878819262917471    2.9434862469180763
H    -3.6260450710908376    -7.8498903807490805    4.245206239411751
C    -4.882319751692991    -6.320994130561615    3.408323142777164
O    -5.517550952704855    -5.545599812109624    4.122890125063218
N    -5.350812284911037    -6.740940675530341    2.237682016860358
H    -4.794539849356488    -7.377363177755661    1.6848462581548702
C    -6.647069285139163    -6.3066411417010055    1.730873744904722
H    -7.403383037738561    -7.055420473772767    1.9662861903938758
O    -6.625113390067254    -3.7589224174388995    0.3990322761737076
C    -7.466687201907631    -3.964734057500037    1.3085619679436657
C    -7.065232055557264    -4.989546192930536    2.3876086939972567
H    -7.888143088824324    -5.16219107999311    3.079819834415865
H    -6.201898342312742    -4.608512976175139    2.936128811623874
O    -8.586640768263367    -3.4191619904955295    1.4466443706786605
C    -6.541976508242877    -6.139661436073474    0.21869046032815675
O    -5.454686432950971    -6.0932485270868995    -0.35664173419177936
N    -7.691004694724965    -6.047100540025149    -0.442677596953426
H    -8.559359799011167    -6.090249702545148    0.07132392311623326
C    -7.730384092731829    -5.8848739163180515    -1.8910890666585
H    -6.715063954920285    -5.688925172234995    -2.235805047498699
H    -8.116326491374135    -6.8082051633667025    -2.323070400924007
C    -8.633441287724967    -4.723086143199946    -2.2915411521873423
O    -9.85733473980386    -4.779351148448588    -2.172041917282762
N    -8.023953008777665    -3.646417469486815    -2.77687568101325
H    -7.017128392318522    -3.6451693369268656    -2.8568921409262726
C    -8.771215790911238    -2.4669967187338955    -3.196791181002726
H    -8.837135155478165    -2.479716516627362    -4.284721713765109
H    -9.762533262432664    -2.5183780908473725    -2.7465139050314593
C    -8.077377293072523    -1.1855720023299727    -2.7471648526966095
O    -6.9263802093370535    -1.1878031832394558    -2.3106310795882794
N    -8.786018694130288    -0.06629606221536011    -2.853418015413949
H    -9.727228762637576    -0.11387056718428595    -3.2166813818816755
C    -8.241295747471053    1.2320521951303058    -2.459175384537766
H    -7.357048953244764    1.085971846243666    -1.838797968306575
N    -2.98965419167988    1.070835641766168    -2.9644319150640768
H    -2.0507009107564356    1.4145825389560407    -2.7551088947160762
H    -3.250977373615515    0.4513295586510292    -2.1796602326433208
C    -4.007735367129729    2.1746486004047085    -3.0846689048127045
H    -3.678476357996471    2.841249719042652    -3.880222480394362
H    -3.9873657882047246    2.706555058243069    -2.1358202326012656
C    -5.372544515979213    1.578326089113671    -3.3549836342431103
H    -5.3383776691599625    0.9835380103607897    -4.27423678945064
H    -5.630172450309214    0.899288227069773    -2.5363939792798944
C    -6.448128471193208    2.6526361516017913    -3.4888090231731343
H    -6.202950774486346    3.303663027382036    -4.331204259282912
H    -6.451226053290126    3.282789344144308    -2.594599284919839
C    -7.826109495357071    2.0374273920007635    -3.692014047267572
H    -8.581118135851536    2.804815319697454    -3.8587829403778358
H    -7.834053787209995    1.369105101537057    -4.555345894443767
H    -2.941970697754408    0.5129937680876749    -3.8184091698786484
C    -9.307632491660618    1.9805505963403756    -1.6665209255348743
O    -10.41574205404855    1.492413068940204    -1.4447644102121666
N    -8.972549444738819    3.1898206408855625    -1.2287694994592007
H    -9.635386291875221    3.7361719790402645    -0.6974997662964313
H    -8.05505956721038    3.562478140195599    -1.4273613241671692
