83
RGDGGK, worst junction 0.413 A, charge 1
N    -2.056263411154495    -0.04958135648716111    4.684252668597885
H    -1.4237935699925717    0.6120490009378459    4.257254811279761
H    -2.8721338747486462    0.43779981503322807    5.026180994833191
C    -2.461033213839328    -1.0429202409568479    3.6967288625886328
H    -2.9462385160516016    -0.5482106905510202    2.8553381831522837
N    0.9892702400423287    -4.502009175815592    -0.753909654643119
H    1.0975226001957368    -3.4820698028847126    -0.6823719434061016
H    1.605062693661922    -4.977629742201972    -1.39165631947001
C    -0.12826210335370025    -5.099966347289514    -0.3683003229674298
N    -0.4930403134764921    -6.265257619443223    -0.9223567674686219
H    -1.1919276696540382    -6.8467519530962475    -0.4946810801023922
H    -0.0754489688467595    -6.585157659285854    -1.7781038261894984
N    -0.9008086350193714    -4.563496668155164    0.5727012666143685
H    -1.7952962975561122    -5.000073628691646    0.7346858267255573
C    -0.46604010685584835    -3.565813026266058    1.5614591423407462
H    0.16855101619115695    -4.052827401623433    2.3063413647335502
H    0.12873064933239586    -2.8068632565168463    1.05905171573867
C    -1.6703348647425063    -2.9117518104059577    2.21866963810215
H    -2.247320411826122    -3.665987605451234    2.763302794154241
H    -2.3220749856309424    -2.5022912972641467    1.4432774634220285
C    -1.2408012741030352    -1.795854200236265    3.1628520357725365
H    -0.685012476363151    -2.181656841569932    4.018129887649265
H    -0.6089992889592396    -1.0736154882131534    2.6417394024488448
C    -3.4378596214625947    -2.0095334297204683    4.357859797183324
O    -3.3975705673841414    -3.2214849354707593    4.145936839882642
N    -4.335110218271663    -1.4690585727799035    5.175826358566396
H    -4.330579900863483    -0.4693492884659439    5.319565090579212
C    -5.32582390722354    -2.2820272070838508    5.871047464518552
H    -4.964623951601854    -2.4600985502195027    6.883927116211071
H    -6.265310943287114    -1.7295085668636276    5.8847318087730685
C    -5.535235875907723    -3.6182702523659196    5.16661425171047
O    -5.647435004651713    -4.672703105136616    5.791869171328814
N    -5.589712402100283    -3.579649824439389    3.839292975364475
H    -5.377623013096852    -2.697603803891288    3.3953189798338688
C    -5.855079036349588    -4.4554439210036705    3.1564808766291352
H    -5.062870418587649    -4.249390349933557    2.4367257573052274
O    -6.625113390067254    -3.7589224174388995    0.3990322761737076
C    -7.466687201907631    -3.964734057500037    1.3085619679436657
C    -7.065232055557264    -4.989546192930536    2.3876086939972567
H    -7.888143088824324    -5.16219107999311    3.079819834415865
H    -6.7670412926101475    -5.9287631090012125    1.9192927429427546
O    -8.586640768263367    -3.4191619904955295    1.4466443706786605
C    -4.708156079659561    -4.147102076939663    2.199862855360137
O    -4.020525700687411    -5.037562722488383    1.7002577106272443
N    -4.4932372953798625    -2.86236105712431    1.9362505867390751
H    -5.082847440100342    -2.165964272176799    2.369253352500988
C    -3.4282804539180862    -2.4322684443231766    1.0381129189856
H    -2.4804691433960224    -2.533163101161543    1.5668604843397262
H    -3.4518924966400983    -3.072883595136345    0.15654913797646897
C    -3.6181658170710866    -0.9800392014020782    0.6131437732055032
O    -2.8562253278240357    -0.08810451336570979    0.9863196072615561
N    -4.6530315392599215    -0.7321677157859852    -0.18300549901488383
H    -5.251685362626039    -1.4956318139439033    -0.46378329477702385
C    -4.946451865911596    0.6134336050457458    -0.6615716880457478
H    -5.320370795203655    1.1962464758195717    0.1802203242574414
H    -4.022688708152127    1.0413231570373593    -1.0510227885226502
C    -5.9975021682105005    0.5889036233934599    -1.766251072318633
O    -5.787549252194368    0.04818444034270486    -2.852024316664453
N    -7.153026024304557    1.1844948831306468    -1.4900687605711342
H    -7.280604003021073    1.615298671018548    -0.5855070127130653
C    -8.241295747471053    1.2320521951303058    -2.459175384537766
H    -9.108487068250984    1.7201281927327008    -2.0143596544557623
N    -2.98965419167988    1.070835641766168    -2.9644319150640768
H    -2.0507009107564356    1.4145825389560407    -2.7551088947160762
H    -3.250977373615515    0.4513295586510292    -2.1796602326433208
C    -4.007735367129729    2.1746486004047085    -3.0846689048127045
H    -3.678476357996471    2.841249719042652    -3.880222480394362
H    -3.9873657882047246    2.706555058243069    -2.1358202326012656
C    -5.372544515979213    1.578326089113671    -3.3549836342431103
H    -5.3383776691599625    0.9835380103607897    -4.27423678945064
H    -5.630172450309214    0.899288227069773    -2.5363939792798944
C    -6.448128471193208    2.6526361516017913    -3.4888090231731343
H    -6.202950774486346    3.303663027382036    -4.331204259282912
H    -6.451226053290126    3.282789344144308    -2.594599284919839
C    -7.826109495357071    2.0374273920007635    -3.692014047267572
H    -8.581118135851536    2.804815319697454    -3.8587829403778358
H    -7.834053787209995    1.369105101537057    -4.555345894443767
H    -2.941970697754408    0.5129937680876749    -3.8184091698786484
C    -8.600451688486451    -0.19729762127405248    -2.851082404605245
O    -8.013437066613754    -1.169222541582148    -2.375543990813304
N    -9.583239571092058    -0.33396021854167923    -3.7352160553117746
H    -9.867994017907044    -1.2553306068542653    -4.035368537493426
H    -10.0453743352866    0.48355070909347797    -4.10697853717346
