49
condensed pair, closure 0.006 A, charge -1
N    -2.99261129158657    2.832915976131806    3.479551472407859
H    -2.6052982219113314    2.047837721403425    3.9832783031518475
H    -3.947292025504757    2.9828278374908446    3.773168791565467
C    -2.2042779710742657    4.027182347635813    3.7588763901375475
H    -2.351643833271503    4.330751646236639    4.795326573989076
C    -0.44693269586614004    3.0535825946400084    2.204385873586276
O    -1.4166488295058113    2.9891221848354497    1.4060324346122928
O    0.7172543602532868    2.6363169853465966    2.027558399499862
C    -0.714225833324586    3.7451688286999127    3.556112976462893
H    -0.3265483856778186    3.1289574968061373    4.369457756353044
H    -0.16797729802003333    4.6909312528885    3.5762011215948846
C    -2.6689086100243005    5.140463789153301    2.825952062380132
O    -2.4571423866430355    6.327535167248209    3.0736971126691217
N    -3.31545116002175    4.756195299243438    1.7302507076738467
H    -3.466419982648887    3.770776749568852    1.5682053542945809
C    -3.812441127600854    5.72043528696065    0.756081205886385
H    -4.568860973663502    6.334115758864023    1.2452900517661534
H    -2.9711644880665156    6.329844351574384    0.42596878906383573
C    -4.431750624375517    5.018694521627884    -0.4479290289018816
O    -5.588466548646603    4.597858830640906    -0.4316013919265414
N    -3.6516337504620164    4.887324409575172    -1.515824415489297
H    -2.7088371085219185    5.248163917480945    -1.4837410634076738
C    -4.1216623718165435    4.235749227782751    -2.732494821794857
H    -5.139574882779488    3.8878805179718885    -2.556592915154709
H    -4.095061782191319    4.96862713857895    -3.5388957000797148
C    -3.2376959706042805    3.0483414823580026    -3.0989525241742126
O    -3.006196507822234    2.139239565110243    -2.301893741656843
N    -2.7314852785253083    3.0508434806664058    -4.327767186859107
H    -2.9502955621418296    3.81786824430063    -4.947359852854696
C    -1.8680692640343208    1.9758605679347065    -4.806794749786647
H    -2.0824398739594625    1.7750716603424075    -5.856475204109873
C    0.11718673698656328    2.1233506421937913    -3.277779586550964
H    1.1880234456274477    2.3528818093712354    -3.2308419369219066
C    -0.3949056244520471    2.3729237339291336    -4.692646892937776
C    -0.6200103389001146    2.9365361508530987    -2.2141985473546217
H    -0.3129984923677483    3.423461888302468    -4.97580505211825
H    0.1669466126745568    1.7930200438043526    -5.425894007447757
H    -1.6978622497670008    2.7847848307585132    -2.3346578687296202
H    -0.3660246962101882    2.5401154898383416    -1.2285348713186992
C    -0.2918560488108491    4.424935990755709    -2.2507577294391936
H    -0.4998928069864356    4.863370320126258    -3.2273920105781038
H    -0.8695426628321822    4.981017188310926    -1.511272865134914
H    0.7673911580791741    4.585112796283513    -2.0350606860968
H    0.01940777409248233    1.0592795929609615    -3.042916990869558
C    -2.1508474626998355    0.7283887629511068    -3.9764480835499203
O    -1.823612539089727    0.6470259487374267    -2.7925315336051546
N    -2.770661566933296    -0.2659160726374532    -4.603687567414321
H    -2.986217271966782    -1.1191649544791897    -4.108104997439001
H    -3.0261459260651935    -0.16830893943713524    -5.575953266586815
