49
fragments fixed, E = -34647.373196 eV
N    -3.1310134836423136    2.9807927523510185    3.6565777739385235
H    -2.7883943842661427    2.3298586246045057    2.95368814152832
H    -3.0917546375651668    2.514574161534319    4.553449741628572
C    -2.2103366512895315    4.119163835673734    3.6628530639485626
H    -2.3906630729715954    4.691350368161694    4.578056918747103
C    -0.44693269586614004    3.0535825946400084    2.204385873586276
O    -1.4166488295058113    2.9891221848354497    1.4060324346122928
O    0.7172543602532868    2.6363169853465966    2.027558399499862
C    -0.714225833324586    3.7451688286999127    3.556112976462893
H    -0.3265483856778186    3.1289574968061373    4.369457756353044
H    -0.16797729802003333    4.6909312528885    3.5762011215948846
C    -2.492201206764718    5.092078679945937    2.501493795771913
O    -1.8028907998045032    6.087023463657064    2.3623032382517954
N    -3.525378000273075    4.803998844439882    1.6264084062805626
H    -3.8455616694757055    3.8559147252332884    1.7631732179154889
C    -3.173266229931372    5.117522402261143    0.24460845838410544
H    -2.959531102370195    6.183410143047556    0.18476249679092827
H    -2.2607316731093006    4.568498145861311    -0.005107922523225344
C    -4.2446091876365095    4.8427396438584145    -0.8033736507759129
O    -5.285323363172982    5.461478554327646    -0.9005680979826991
N    -3.871930715553339    3.8951105163188973    -1.7363200242526662
H    -3.226936701717809    3.19395185338101    -1.4006971278369864
C    -4.748343919947781    3.54993122472895    -2.840058855571132
H    -5.577291613804454    2.905750429800653    -2.54007129113591
H    -5.191288847740708    4.4747866008112505    -3.2144982334839245
C    -4.070643877345351    2.814967340373206    -3.9993740127591417
O    -4.697006980143885    2.006670964534302    -4.662788565344607
N    -2.7604570071899555    3.086048756169961    -4.254722665750666
H    -2.31453402216637    3.748906863612787    -3.6444561795154544
C    -1.9161788593217668    2.0882550633543304    -4.909571522420178
H    -2.1092073763694295    2.1224932954953424    -5.985959147290195
C    0.11718673698656328    2.1233506421937913    -3.277779586550964
H    1.1880234456274477    2.3528818093712354    -3.2308419369219066
C    -0.3949056244520471    2.3729237339291336    -4.692646892937776
C    -0.6200103389001146    2.9365361508530987    -2.2141985473546217
H    -0.3129984923677483    3.423461888302468    -4.97580505211825
H    0.1669466126745568    1.7930200438043526    -5.425894007447757
H    -1.6978622497670008    2.7847848307585132    -2.3346578687296202
H    -0.3660246962101882    2.5401154898383416    -1.2285348713186992
C    -0.2918560488108491    4.424935990755709    -2.2507577294391936
H    -0.4998928069864356    4.863370320126258    -3.2273920105781038
H    -0.8695426628321822    4.981017188310926    -1.511272865134914
H    0.7673911580791741    4.585112796283513    -2.0350606860968
H    0.01940777409248233    1.0592795929609615    -3.042916990869558
C    -2.285241353371526    0.6879463848550198    -4.403367012925811
O    -2.479804422312338    0.439660032787109    -3.235174052048304
N    -2.268716556076208    -0.2770426896899966    -5.373998013310148
H    -2.6392730693743585    -1.169411252634623    -5.087578375718631
H    -2.481045984571543    0.010940901762736719    -6.314400866084797
