49
free relaxation, E = -34648.782166 eV
N    -3.4060422010830713    3.595851302626171    2.9528023091798437
H    -3.53974370306332    2.850010364505304    2.2724895650484522
H    -3.366828316488736    3.1701228687854184    3.8690519632608815
C    -2.1106277537237927    4.215693885704902    2.6495683987818883
H    -1.8064783991064166    4.8034969261019835    3.5226805668300067
C    -1.3369259773316187    2.272857367313    1.137861554010815
O    -2.3338101058418603    2.6024998547215463    0.4130486159193073
O    -0.60155441881702    1.29677033370872    0.9878303320502876
C    -1.014628990954618    3.2059576336704336    2.3264466704785884
H    -0.8179932536791433    2.578438683047458    3.1992628111390484
H    -0.08730239912156314    3.727909918746216    2.0867361634627795
C    -2.232315786235303    5.229354870317024    1.5127261469924558
O    -1.2473332049138968    5.747696804800477    1.0135331352879051
N    -3.5045646820722514    5.5298913194079296    1.1482702638531948
H    -4.212491342909498    4.99119685846439    1.6254567194118112
C    -3.821355212447802    6.152853311682798    -0.11000884656168204
H    -4.472718020220288    7.018930535599601    0.012464713247181129
H    -2.8847674916071755    6.497139381818182    -0.5513976988991911
C    -4.511453037943735    5.22314685671762    -1.1066231002718538
O    -5.20247763141879    5.68455859072421    -2.0056509697379052
N    -4.306083058091901    3.907801944293508    -0.9021825190787511
H    -3.5975322990390843    3.586216981245944    -0.23266533731191374
C    -4.892309964037695    2.924683317149    -1.7749627737593237
H    -5.072010749941493    2.0086221585373805    -1.207367410207242
H    -5.8389457640858105    3.2968782263315397    -2.161202516685234
C    -4.081285561424553    2.5293456858483045    -2.9979017937208154
O    -4.645837958578204    2.084848031565884    -3.9907034617562434
N    -2.7370295438308885    2.6827125530612945    -2.93852406528364
H    -2.290542456808386    2.7524034910049076    -2.0282902813604475
C    -1.996411477416332    2.2597342770956987    -4.106498757068383
H    -2.5844970563488303    2.6083948034780637    -4.958017063915663
C    0.5267988510121208    2.252077133092789    -3.4095036384386685
H    1.462555905445342    2.708936925947358    -3.752624862038305
C    -0.5978915363166566    2.8792645447452077    -4.230670127999816
C    0.42598556691441697    2.4212080940534477    -1.8961788691331671
H    -0.6912935407224113    3.943201101886555    -3.99912023128593
H    -0.3253044923111935    2.816370940387645    -5.288481921986031
H    -0.4487784215834972    1.9033810278475138    -1.4970676508205476
H    1.2757768248877528    1.9056081956789621    -1.4419566516608673
C    0.4404773396332287    3.8793272098470357    -1.453185390183653
H    -0.4229542829941113    4.438724772508264    -1.8227407400160083
H    0.41910545045052    3.966456805487195    -0.36784951380476905
H    1.3434559232456942    4.384227589734517    -1.8145174235745452
H    0.5948836424091142    1.1882946323567374    -3.650500838592755
C    -1.9394337725736477    0.7319534189789477    -4.19496174813079
O    -1.7646430585121142    0.017207684726172685    -3.2353055583255426
N    -2.0221826865352965    0.23757894638244073    -5.477551304563674
H    -2.13530842165793    -0.7629855180145919    -5.527374156153496
H    -2.5761277695861464    0.7653853254640238    -6.131366305421648
