42
free relaxation, E = -36556.535455 eV
N    -2.833587008375678    4.34360935498334    5.456570736761256
H    -3.7481882689333257    3.9549205128471834    5.667366891371542
H    -2.241827182294527    3.979290008977865    6.196924228672591
C    -2.369362476142123    3.7654953680792853    4.194204746689193
H    -2.933777513376661    4.217291829334248    3.375654324160242
C    -0.3599829753965713    4.036297648281188    2.5186385802918365
O    -1.1717188600080322    3.677651251479345    1.619443654354019
O    0.8263711719028992    4.371687229586379    2.385345642294458
C    -0.8902937780890109    4.087818249522067    3.9776129960414393
H    -0.26487666868602616    3.4256885682410316    4.586215751127692
H    -0.7158743047846421    5.103254651592684    4.338094989990455
C    -2.6090010152288037    2.253212169719632    4.139996566904191
O    -2.87829916303179    1.6034823012400286    5.15696397074048
N    -2.504400466206052    1.7114862785269704    2.9214146114878137
H    -2.1258563181156584    2.350319172990817    2.197737888578092
C    -2.5563337340607117    0.27907218849740517    2.7076499436652233
H    -2.0871987068894753    0.051403215972160486    1.753861471409388
H    -2.011154103169362    -0.23244957515834241    3.507818324805204
C    -3.972822255510798    -0.2983466004648291    2.6533394110661
O    -4.388997814038791    -0.9027360224115832    1.678494438478772
N    -4.7043721329850445    -0.08875782565839145    3.7705924619509674
H    -4.2338509200855405    0.3439929492668181    4.557301148478527
C    -6.033715464677303    -0.6374809405195019    3.9179187682012557
H    -6.549462552140213    -0.08062757476721574    4.701292057470048
H    -6.571759237625082    -0.5262543857740245    2.9758147166339577
C    -5.9864008219616265    -2.105462394017694    4.35446237983505
O    -5.615288595148943    -2.407686797696677    5.482330693748839
N    -6.379714683675532    -2.9741245919684305    3.411617507076816
H    -6.594242230884789    -2.6645704479775936    2.4658582809189062
C    -6.305215590642914    -4.415722557210535    3.5538867325378756
H    -6.3004602865870485    -4.649063051288035    4.617047268267792
O    -7.169067169686611    -3.668402555917764    0.9288590072212739
C    -7.847226680583108    -4.620638462742036    1.4147535572261531
C    -7.5053458259658425    -5.079989263896997    2.8641094603496935
H    -8.400421009227939    -4.9042248346048085    3.4655657786584686
H    -7.358884952097332    -6.162253733936222    2.8414684478456116
O    -8.784320822771283    -5.232709981646212    0.8829576621167201
C    -4.9968094372760525    -4.994676295436273    3.0013778077246465
O    -4.387092953318199    -5.875145509858455    3.595638355962165
N    -4.614314365244736    -4.477675138105626    1.819528913406256
H    -3.8105549923643247    -4.877778149180107    1.3701310115649754
H    -5.298843920552892    -3.9443481259352047    1.2833668301397012
