42
condensed pair, closure 0.000 A, charge -2
N    -2.392616605899156    5.130211419981952    4.693552496706829
H    -3.329382236001118    5.097177003651998    5.069689282460912
H    -1.7247833054616624    5.051326146492258    5.44712783896082
C    -2.2042779710742657    4.027182347635813    3.7588763901375475
H    -2.632404538575059    4.288333381140673    2.791091403738537
C    -0.44693269586614004    3.0535825946400084    2.204385873586276
O    -1.4166488295058113    2.9891221848354497    1.4060324346122928
O    0.7172543602532868    2.6363169853465966    2.027558399499862
C    -0.714225833324586    3.7451688286999127    3.556112976462893
H    -0.3265483856778186    3.1289574968061373    4.369457756353044
H    -0.16797729802003333    4.6909312528885    3.5762011215948846
C    -2.9096087048741666    2.796048961246972    4.317843420360294
O    -4.136357373537379    2.7275237035027144    4.393691907386208
N    -2.1245488330333204    1.801334815076602    4.718425203562907
H    -1.1228548423041713    1.901893427397008    4.6372025809426916
C    -2.6719828147457103    0.568651318720272    5.272114135615239
H    -1.8438898206206278    -0.11721767331024191    5.450847788999272
H    -3.1810302752880073    0.8148845002305413    6.203961710725444
C    -3.6635346130008584    -0.07578437736700172    4.30922646564252
O    -3.3142063143296587    -0.516473197244512    3.2141812137088603
N    -4.926236346098958    -0.1345618188406068    4.719556266662226
H    -5.166848480234081    0.23991656309081155    5.626182839388268
C    -5.973126649581514    -0.7256786252522619    3.894713485490027
H    -6.919587460002895    -0.2574426485478716    4.165022576081127
H    -5.728177270328363    -0.5328393450756418    2.8502457676430564
C    -6.070380932301639    -2.230537402539684    4.121796432700069
O    -6.382727309467572    -2.704751242888878    5.214006107759115
N    -5.798743840864896    -3.000899860213292    3.0734663442437355
H    -5.546780965167096    -2.567564013735184    2.196634117744734
C    -5.855079036349588    -4.4554439210036705    3.1564808766291352
H    -5.956331247880253    -4.760494045481478    4.198014558857523
O    -6.625113390067254    -3.7589224174388995    0.3990322761737076
C    -7.466687201907631    -3.964734057500037    1.3085619679436657
C    -7.065232055557264    -4.989546192930536    2.3876086939972567
H    -7.888143088824324    -5.16219107999311    3.079819834415865
H    -6.7670412926101475    -5.9287631090012125    1.9192927429427546
O    -8.586640768263367    -3.4191619904955295    1.4466443706786605
C    -4.562547759768121    -5.021604266188695    2.57816404080412
O    -3.755124484213762    -4.314579048619949    1.9752179438643211
N    -4.357420360995963    -6.321725250405084    2.7621454982208316
H    -3.5196668346179125    -6.756618394346885    2.4027891536357435
H    -5.039283238194271    -6.874884923663096    3.2613222130022166
