42
fragments fixed, E = -36556.073748 eV
N    -2.338815058315875    4.975506431609631    4.9495742754178575
H    -3.317604909238106    5.015234938190773    5.2188024730272975
H    -1.8760849859441395    4.594344518423266    5.770207984389518
C    -2.1989615419069426    3.9946766409198657    3.8727725858245696
H    -2.6832066345113477    4.380419121282409    2.9752368050465052
C    -0.44693269586614004    3.0535825946400084    2.204385873586276
O    -1.4166488295058113    2.9891221848354497    1.4060324346122928
O    0.7172543602532868    2.6363169853465966    2.027558399499862
C    -0.714225833324586    3.7451688286999127    3.556112976462893
H    -0.3265483856778186    3.1289574968061373    4.369457756353044
H    -0.16797729802003333    4.6909312528885    3.5762011215948846
C    -2.832910656722869    2.6404663585476604    4.241310053611396
O    -3.0587974063555774    2.324311363575807    5.409297402563187
N    -3.0492538854414835    1.821008090844449    3.1943022215101426
H    -2.6368674786839303    2.1559168416713286    2.310246895365655
C    -3.172415992564337    0.3933489779543585    3.39158935379247
H    -2.6245460638065983    -0.10767255599720987    2.594131460455864
H    -2.7284652537443614    0.12603438609666393    4.352808150250594
C    -4.600787789062938    -0.1263979758556196    3.305607068945931
O    -5.138248861396842    -0.3696072027637898    2.2380703134472855
N    -5.217569241804603    -0.3406801501396011    4.493477047467636
H    -4.715841215455424    -0.12911687911021144    5.338657426619544
C    -6.517926938072156    -0.9769082081335076    4.561704523909212
H    -7.03310392359236    -0.6609939052949673    5.465312825700955
H    -7.090562689174798    -0.6723658658383381    3.68436654816134
C    -6.42548006745369    -2.5054273662276363    4.600719209537977
O    -6.739566612412801    -3.131538844591126    5.604428202442639
N    -5.951799125499168    -3.0536185820355897    3.465333878171158
H    -5.855915241756559    -2.4482562796395895    2.6564987930619646
C    -5.878993578129163    -4.493586541206392    3.2505797751837133
H    -5.927924415169419    -4.953507139532727    4.234383936247245
O    -6.625113390067254    -3.7589224174388995    0.3990322761737076
C    -7.466687201907631    -3.964734057500037    1.3085619679436657
C    -7.065232055557264    -4.989546192930536    2.3876086939972567
H    -7.888143088824324    -5.16219107999311    3.079819834415865
H    -6.7670412926101475    -5.9287631090012125    1.9192927429427546
O    -8.586640768263367    -3.4191619904955295    1.4466443706786605
C    -4.486157588880177    -4.847355942694858    2.712072688026768
O    -3.631926262777644    -5.332959404082624    3.4489745990697216
N    -4.30090108188529    -4.572626743136194    1.4133411480282936
H    -3.3871155692676256    -4.745868351921695    1.0298938305170708
H    -5.112854321187736    -4.238693975309696    0.8448115888915814
