61
free relaxation, E = -37236.298990 eV
N    -3.0429613159867133    2.52671241451886    -4.6348615897305
H    -2.745268566357878    2.83047173190136    -5.553508459083368
H    -3.8827170481957616    1.9743919342672283    -4.758170870739145
C    -1.9817937319975185    1.752159746500752    -3.9856105352411952
H    -1.8737862499829279    0.7387138702034602    -4.385613127002469
C    0.5793067201993661    1.9215339094907649    -3.5366847133253483
H    1.4478680775066142    2.316126436347786    -4.071671624536691
C    -0.6669688302601097    2.50839972715163    -4.196168196140782
C    0.7599747203166043    2.227609515634487    -2.047625086914401
H    -0.8070254461869056    3.549609157191651    -3.8948005394855487
H    -0.5094383495700904    2.5273469420864507    -5.279200955225022
H    -0.000589697475653726    1.7315705068943994    -1.444120047264572
H    1.717709178001768    1.8021975827126617    -1.7336776175758695
C    0.7654952740893697    3.7178346475099877    -1.7247401190351808
H    -0.21627216543498948    4.165710154533321    -1.8837408604456864
H    1.0270470538035181    3.8856345434286266    -0.6798255305840769
H    1.4859082602913818    4.258518939818566    -2.344444480578484
H    0.5903675282211235    0.8377416953384386    -3.6902438141012057
C    -2.3699965568412864    1.5470045764220561    -2.5192144199549027
O    -2.302377332666432    0.46550242327210106    -1.9618664113516042
N    -2.823258012102194    2.6733890912609506    -1.9089587319359769
H    -3.0389418325638493    3.434436966359897    -2.53434727725373
C    -3.4418126866018004    2.6481697991262165    -0.6111585693532984
H    -4.133671511309307    3.4869818865285094    -0.5272435311517386
H    -4.026721910017973    1.7279372242977111    -0.49752119690801266
C    -2.4510623738483455    2.653149071552286    0.5436693108961344
O    -1.3705294370060714    2.1073714688807654    0.4979790226876767
N    -2.914772144438752    3.20864549380365    1.705243014850502
H    -3.708712884357932    3.826115955423541    1.692492613776181
C    -2.093935713570595    3.1052245409517134    2.8945008323785664
H    -1.0957705807524711    3.5086075692047953    2.7286508510106864
H    -2.5667590925622026    3.6642766572352823    3.7014264769083454
C    -1.8986273290661682    1.6583915923416275    3.3439848510810677
O    -0.9034288815589738    1.325966638504687    3.96607087961756
N    -2.9101690129361977    0.8147258582209105    3.0364692029494176
H    -3.658994417536296    1.2162664824293834    2.4979875537205687
C    -2.8188430939077573    -0.6398776509589185    3.0012727225021436
H    -3.731900706505516    -0.9804322321087492    2.512835927626071
N    1.1102115766591485    -4.5551808061714745    -0.7121657392119024
H    1.3897814656236385    -3.6532201668993864    -0.36967985976375384
H    1.7014407560989684    -5.000038007883571    -1.3912074890979933
C    -0.06803717729193218    -5.077552957293219    -0.3730719463660989
N    -0.4155248353049615    -6.277910708748977    -0.848675011063522
H    -1.3181171320837557    -6.671852844153719    -0.6496415920271237
H    0.2146004367235439    -6.816090844407093    -1.4171264672763952
N    -0.8768970214874197    -4.41013485202903    0.4295349906739599
H    -1.7235696316032205    -4.859057075929116    0.7435614061582559
C    -0.6080898208416505    -3.0601550453843    0.942291698797763
H    0.29757538971553454    -3.083817401608196    1.5552561575130723
H    -0.45575885170713903    -2.380726407850243    0.09973859538987764
C    -1.7881887589017877    -2.591116078951234    1.7710031960299375
H    -1.8935012193665903    -3.2204948409628797    2.6571665312452826
H    -2.7045857150937382    -2.7069393202657475    1.1837495129459517
C    -1.627946003300835    -1.1269889370368145    2.160741779102712
H    -0.6972338847998787    -0.9736351982921647    2.7098711684577808
H    -1.5753822131482889    -0.5049406993500527    1.2618899703199031
C    -2.856021559226284    -1.353931205831389    4.356655054462928
O    -3.4159349307779063    -2.436267538731452    4.426177896080522
N    -2.2263753126190764    -0.7603281300652623    5.384978220828271
H    -2.2017867983146155    -1.2484003501453886    6.264737944314766
H    -1.6277598506582756    0.04031422107844786    5.224493804731009
