57
free relaxation, E = -35817.239434 eV
N    -2.233051478900494    1.8392875343009665    -5.962816980494932
H    -3.0994333082605947    1.3311706933850247    -6.105890027647614
H    -2.4474363649755375    2.817385647613078    -6.1330882625491805
C    -1.7706125985940622    1.6934513782317673    -4.579769871917395
H    -1.5328754544252512    0.6365757964743411    -4.416109170198123
C    0.31870892014188346    2.1769196177310026    -3.1502564553087615
H    1.2911424661681339    2.667114923133904    -3.252395728781163
C    -0.5124087601893491    2.533232248965218    -4.381986087770034
C    -0.2669958132853203    2.5700554013519152    -1.7935888472695956
H    -0.8040829425072721    3.587382456343802    -4.372990405835549
H    0.09425679956586068    2.3833859959161288    -5.27660405381966
H    -1.1970720917107327    2.0317795594572194    -1.5899754219640505
H    0.42481279321010323    2.2280989397815865    -1.0195587179126255
C    -0.48855399403083155    4.071883766173723    -1.6519043021693407
H    -1.266340799785328    4.428614802921879    -2.3298327841881648
H    -0.77600296259567    4.334847978708149    -0.6341113991330669
H    0.4247885952280541    4.6211479149748325    -1.8933583466118198
H    0.5201061064041871    1.1005451340297174    -3.1658495558588498
C    -2.8964005123960006    2.1152675943550294    -3.6410783974842884
O    -3.3443381233585168    3.2580438836177317    -3.661754206926144
N    -3.4411047715045506    1.1564067217573504    -2.8601060972494543
H    -2.958523273086305    0.27958207969362026    -2.7580907575993834
C    -4.682075084412337    1.3611520796876901    -2.139563199438181
H    -5.358831548780725    1.920933247108663    -2.7889166927793116
H    -5.121486261166229    0.3925376231044128    -1.9171347729183572
C    -4.577716734735965    2.107465994549184    -0.8146260891429677
O    -5.130193463566041    1.6636057941041245    0.188103611489958
N    -3.8904234594809757    3.260364856402236    -0.8363104077406154
H    -3.556892781792294    3.5844663135683477    -1.7378739603156659
C    -3.7568377254744187    4.113770208823807    0.3328957681072142
H    -3.4654234441567326    5.108617340770866    0.009320806714684745
H    -4.717252912258938    4.167189210025404    0.8516530630897456
C    -2.694570743324725    3.6354817769458676    1.3228578956748207
O    -1.760290585171779    4.342267746402128    1.6610344348204324
N    -2.913616233845969    2.3874129540660047    1.7919859007753633
H    -3.6785578946449533    1.8672089742421945    1.3792867362331755
C    -1.9499925860501923    1.6991877925899872    2.6042299204625974
H    -1.1593614573673288    2.424264886703084    2.808853356194079
C    -4.473690234670344    -2.619584834780292    4.01510183609857
C    -4.832701845103408    -1.6795042095641675    3.0603074822778296
C    -4.223834269729995    -0.43400237737193575    3.0340823935470644
C    -3.2315325002150797    -0.11069393121487553    3.958059377189724
C    -2.8777048087520245    -1.0641515756241646    4.908997192027677
C    -3.4918301223901143    -2.308214022789501    4.942789780389559
H    -4.955658477902423    -3.587923888541341    4.034470167387017
H    -5.595588253484889    -1.910477414062197    2.328685364582141
H    -4.5438391355023    0.27735437912175065    2.283309147211262
H    -2.1129537753394114    -0.8244574750834347    5.640696507322727
H    -3.2027793342711766    -3.0323755342929855    5.693622661994333
C    -2.541535135519342    1.2348558693269982    3.9560146635349263
H    -3.2399210871954836    2.015564592144459    4.2640428094294585
H    -1.7532049856136447    1.2213515829962016    4.7127472108572945
C    -1.3310672486082813    0.5466106984494595    1.805248583598763
O    -1.6859226615392717    0.2631915495394958    0.6788627062665494
N    -0.3320861818913654    -0.11464741840433654    2.44562944611525
H    0.022786584311288025    -0.9533055338670865    2.0188014798910228
H    -0.15786436647459004    0.02963244443707026    3.4236343047854185
