66
condensed pair, closure 0.026 A, charge 0
N    -2.590740474467081    2.9291866306015533    -5.6402692484077965
H    -2.1831966723628646    2.9459373870322025    -6.564242982626167
H    -3.560090900296697    2.653097862150272    -5.705344158157997
C    -1.8680692640343208    1.9758605679347065    -4.806794749786647
H    -1.9157485592196937    0.984214195873854    -5.256754923123327
C    0.11718673698656328    2.1233506421937913    -3.277779586550964
H    1.1880234456274477    2.3528818093712354    -3.2308419369219066
C    -0.3949056244520471    2.3729237339291336    -4.692646892937776
C    -0.6200103389001146    2.9365361508530987    -2.2141985473546217
H    -0.3129984923677483    3.423461888302468    -4.97580505211825
H    0.1669466126745568    1.7930200438043526    -5.425894007447757
H    -1.6978622497670008    2.7847848307585132    -2.3346578687296202
H    -0.3660246962101882    2.5401154898383416    -1.2285348713186992
C    -0.2918560488108491    4.424935990755709    -2.2507577294391936
H    -0.4998928069864356    4.863370320126258    -3.2273920105781038
H    -0.8695426628321822    4.981017188310926    -1.511272865134914
H    0.7673911580791741    4.585112796283513    -2.0350606860968
H    0.01940777409248233    1.0592795929609615    -3.042916990869558
C    -2.521826325252733    1.9474887293879073    -3.429325423926888
O    -2.88025521351588    0.8950173664544727    -2.900937533960167
N    -2.6825868982830303    3.1236486644818307    -2.831793127528753
H    -2.3731582477357054    3.9614505142845093    -3.303430669172409
C    -3.2941055430758883    3.235760829358196    -1.5129907126244426
H    -4.03033842433494    4.038675966238944    -1.5502523218323634
H    -3.7693400818108866    2.2828950428791126    -1.2799694128449326
C    -2.251370379088579    3.554873213100556    -0.4469252060411806
O    -1.506342591783992    4.5306535177797285    -0.5371881172741668
N    -2.192739980709982    2.7195921384884674    0.5851159766549565
H    -2.8240828538630023    1.9318795539217501    0.6169759928839605
C    -1.2405524189615855    2.911005174958408    1.672527534769455
H    -0.5827036876803229    3.737151489426364    1.4026807007271662
H    -1.8038044352649243    3.141789394630779    2.5767320526084436
C    -0.4067332277011997    1.6550976828996413    1.9028901351987229
O    0.23075617840380702    1.1218846256402344    0.9947865658455558
N    -0.407465088688591    1.1690091222366927    3.13980499709186
H    -0.9454929764838653    1.6399329186672793    3.8531469697178644
C    0.34836803958652707    -0.02652846943027476    3.4935989330390376
H    -0.26325940661845215    -0.8956460298785527    3.251428469998621
H    1.2707161610491955    -0.026070076008992752    2.9127601148547164
C    0.6870679832406994    -0.04495822657217312    4.98039673106685
O    0.5765033754730241    0.9582025726122185    5.685240599231221
N    1.1083924980304705    -1.2056405234273753    5.471867237815826
H    1.180204602435956    -1.9994943245896377    4.851593778734202
C    1.4752898044438463    -1.3766746306817672    6.891741516172734
H    0.7857745916553392    -2.072204235895135    7.370184135098929
C    4.1556876074106865    -3.7835312443700593    3.4163672335472395
C    5.129036607963831    -3.341492582194848    4.26930401274674
C    4.6913851560934425    -2.726920153527842    5.441298589092671
C    3.3328811321184935    -2.574126442457316    5.711450982102379
C    2.402076154768857    -3.0254332080745674    4.778497795634135
C    2.8079310114890688    -3.6435089022221585    3.5938949239622846
H    6.18446173840121    -3.450961011750294    4.058145157466032
H    5.42131829476264    -2.362659726054509    6.156049874780157
H    1.342565989185355    -2.8969655848398768    4.973280545677201
H    2.085420421739104    -3.9969120657167196    2.869008581266445
C    2.8870783379774427    -1.9545852933550074    7.0090973960920335
H    2.872427101596511    -2.696893842853912    7.809725502798206
H    3.558970636106942    -1.1533824351037396    7.3172998386270685
H    2.7814257037102452    -3.169871941649232    -3.4138808439853805
O    3.005672565562057    -2.2807868037637045    -3.125331020466319
H    2.422274958667677    -2.1202565229211703    -2.3680979606881967
C    1.3953936778015634    -0.01816702872071896    7.579999247231093
O    2.3632059865293513    0.7404722267506667    7.6362737097590525
N    0.2214780985710123    0.3001203992112787    8.115588946590812
H    0.10450933470323666    1.18640075789969    8.585616003346468
H    -0.5536936454790871    -0.3442710940058628    8.052593941267295
