61
fragments fixed, E = -37231.104096 eV
N    -2.351366677519133    2.663705198124608    -6.139458356354109
H    -1.6280490579748719    2.8194384925309572    -6.830435925771628
H    -3.1162290059686337    2.188856811577589    -6.604828341060912
C    -1.8421171331775914    1.8756023002761268    -5.016852462950828
H    -1.762623708423972    0.807432273183525    -5.249174900840609
C    0.11718673698656328    2.1233506421937913    -3.277779586550964
H    1.1880234456274477    2.3528818093712354    -3.2308419369219066
C    -0.3949056244520471    2.3729237339291336    -4.692646892937776
C    -0.6200103389001146    2.9365361508530987    -2.2141985473546217
H    -0.3129984923677483    3.423461888302468    -4.97580505211825
H    0.1669466126745568    1.7930200438043526    -5.425894007447757
H    -1.6978622497670008    2.7847848307585132    -2.3346578687296202
H    -0.3660246962101882    2.5401154898383416    -1.2285348713186992
C    -0.2918560488108491    4.424935990755709    -2.2507577294391936
H    -0.4998928069864356    4.863370320126258    -3.2273920105781038
H    -0.8695426628321822    4.981017188310926    -1.511272865134914
H    0.7673911580791741    4.585112796283513    -2.0350606860968
H    0.01940777409248233    1.0592795929609615    -3.042916990869558
C    -2.8489781486343047    1.9047755670817192    -3.8743791755750814
O    -3.0146313077818307    0.9505690189869539    -3.12879512420267
N    -3.512708046333392    3.089411387565509    -3.711743351313604
H    -3.313771082931578    3.786813509176944    -4.415833163554254
C    -4.305639763754603    3.3824694564031996    -2.639385815941834
H    -4.758187973688396    4.357883770239644    -2.5961885056760874
H    -4.535860242457426    2.5836715930017147    -1.9555771058907194
C    -1.4960766339670832    3.4282111936754878    1.6855141985773
O    -0.4462379761089549    3.1279359910894096    1.2040310277014656
N    -1.9322112054060738    3.1624617942624575    2.9325386412148178
H    -2.803232913097133    3.580923300451948    3.2123996724831545
C    -1.065292376714867    2.570747282557193    3.946091681868258
H    -0.027674767913157265    2.7331391341429327    3.6583795355244617
H    -1.2212898385682625    3.070840197507836    4.902269884128691
C    -1.2205026087419653    1.0735296092257811    4.193761938940266
O    -0.41712334224697545    0.509327629143091    4.923557177609552
N    -2.261663615249222    0.4509621565768853    3.613700606103137
H    -2.851774443001632    0.9897819553032651    2.9983792717896693
C    -2.4805710871290083    -0.9943957898557274    3.624889194294506
H    -3.2804234335253635    -1.1556142923205328    2.902919312315396
N    0.9892702400423287    -4.502009175815592    -0.753909654643119
H    1.0975226001957368    -3.4820698028847126    -0.6823719434061016
H    1.605062693661922    -4.977629742201972    -1.39165631947001
C    -0.12826210335370025    -5.099966347289514    -0.3683003229674298
N    -0.4930403134764921    -6.265257619443223    -0.9223567674686219
H    -1.1919276696540382    -6.8467519530962475    -0.4946810801023922
H    -0.0754489688467595    -6.585157659285854    -1.7781038261894984
N    -0.9008086350193714    -4.563496668155164    0.5727012666143685
H    -1.7952962975561122    -5.000073628691646    0.7346858267255573
C    -0.46604010685584835    -3.565813026266058    1.5614591423407462
H    0.16855101619115695    -4.052827401623433    2.3063413647335502
H    0.12873064933239586    -2.8068632565168463    1.05905171573867
C    -1.6703348647425063    -2.9117518104059577    2.21866963810215
H    -2.247320411826122    -3.665987605451234    2.763302794154241
H    -2.3220749856309424    -2.5022912972641467    1.4432774634220285
C    -1.2408012741030352    -1.795854200236265    3.1628520357725365
H    -0.685012476363151    -2.181656841569932    4.018129887649265
H    -0.6089992889592396    -1.0736154882131534    2.6417394024488448
C    -3.016400666502318    -1.6009345475935108    4.9223332577924435
O    -3.8165040059276607    -2.517081525606752    4.853869056192981
N    -2.5210872720089057    -1.111753560066267    6.077200349245606
H    -2.802146638266167    -1.5737082428174949    6.926152162169928
H    -1.6997869697693282    -0.521047947022091    6.069435172763782
