66
fragments fixed, E = -43536.511793 eV
N    -2.3909632876979834    3.2024889135715995    -5.855899402194371
H    -1.7556097711173084    3.2109657063812325    -6.644570288499758
H    -3.316775945490139    2.9974301363734916    -6.213936408902716
C    -1.9685945305644506    2.202083565796912    -4.870482261481163
H    -2.175775628572257    1.1728578087664505    -5.17891983847172
C    0.11718673698656328    2.1233506421937913    -3.277779586550964
H    1.1880234456274477    2.3528818093712354    -3.2308419369219066
C    -0.3949056244520471    2.3729237339291336    -4.692646892937776
C    -0.6200103389001146    2.9365361508530987    -2.2141985473546217
H    -0.3129984923677483    3.423461888302468    -4.97580505211825
H    0.1669466126745568    1.7930200438043526    -5.425894007447757
H    -1.6978622497670008    2.7847848307585132    -2.3346578687296202
H    -0.3660246962101882    2.5401154898383416    -1.2285348713186992
C    -0.2918560488108491    4.424935990755709    -2.2507577294391936
H    -0.4998928069864356    4.863370320126258    -3.2273920105781038
H    -0.8695426628321822    4.981017188310926    -1.511272865134914
H    0.7673911580791741    4.585112796283513    -2.0350606860968
H    0.01940777409248233    1.0592795929609615    -3.042916990869558
C    -2.9064292433116528    2.3490944727763208    -3.617455285704194
O    -3.3426890139868504    1.3472140764016285    -3.0881171553770734
N    -3.1920392678442377    3.611091343790376    -3.1077085335023136
H    -2.7690558024243606    4.3846692809187795    -3.5966305207288696
C    -3.7304254384271274    3.833497801482121    -1.7563644846411126
H    -4.369371407920812    4.711488390793619    -1.803323022779821
H    -4.37075778625224    2.9783498220761064    -1.543047552808783
C    -3.113156738500584    4.080639751264654    -0.2324143166287048
O    -4.003897146913711    4.5260627974439585    0.4675433964413471
N    -1.9320860941874203    3.7051575880954912    0.3726678925803506
H    -1.1331194081134954    3.4112096211020506    -0.1566558690490608
C    -1.8070438710123828    3.5557277553603757    1.8389334103520787
H    -1.6322788593393436    4.525292273406739    2.3132484108273026
H    -2.7429798132315906    3.177085537169909    2.25202681588546
C    -0.5864891799005889    2.6667460060132933    2.225102609376896
O    0.3958582636490222    2.6887626994489144    1.5051691505430989
N    -0.5937380029700615    1.944476049094713    3.396830381622922
H    -1.4408797104979458    1.8064386247172721    3.9259100628773713
C    0.5785825357805688    1.1390012445351156    3.7916646973134895
H    0.8096675970955595    0.43286517427105065    2.989765279177765
H    1.4480815271993526    1.7927400030399967    3.8947671038926117
C    0.38244870356983085    0.29735346375424365    5.0852827973153865
O    -0.7412360909475392    0.10306638923120025    5.523536000226119
N    1.5052343868244005    -0.2502667172367217    5.659168284012192
H    2.398701640190604    -0.04867684972228973    5.2360535681585025
C    1.5182972482116621    -1.1894653122973156    6.834965205713988
H    0.686029123971548    -1.8816566182268506    6.691374200260205
C    4.1556876074106865    -3.7835312443700593    3.4163672335472395
C    5.129036607963831    -3.341492582194848    4.26930401274674
C    4.6913851560934425    -2.726920153527842    5.441298589092671
C    3.3328811321184935    -2.574126442457316    5.711450982102379
C    2.402076154768857    -3.0254332080745674    4.778497795634135
C    2.8079310114890688    -3.6435089022221585    3.5938949239622846
H    6.18446173840121    -3.450961011750294    4.058145157466032
H    5.42131829476264    -2.362659726054509    6.156049874780157
H    1.342565989185355    -2.8969655848398768    4.973280545677201
H    2.085420421739104    -3.9969120657167196    2.869008581266445
C    2.8870783379774427    -1.9545852933550074    7.0090973960920335
H    2.872427101596511    -2.696893842853912    7.809725502798206
H    3.558970636106942    -1.1533824351037396    7.3172998386270685
H    2.7814257037102452    -3.169871941649232    -3.4138808439853805
O    3.005672565562057    -2.2807868037637045    -3.125331020466319
H    2.422274958667677    -2.1202565229211703    -2.3680979606881967
C    1.2456967382204773    -0.37008457294318603    8.113110394403027
O    2.1406728765822547    -0.02611166505308682    8.857912766625912
N    -0.0609460041562873    -0.0917119585911971    8.325945877273616
H    -0.27595381655183643    0.5551742190692232    9.066488418720654
H    -0.7096224490238601    -0.18022964800374724    7.556006454045205
