61
condensed pair, closure 0.020 A, charge 1
N    -2.5996198754391187    2.952075890577112    -5.605294184220668
H    -2.199662246539732    2.997645217085301    -6.531608024971614
H    -3.5688556931957045    2.6756916862076694    -5.670820523602578
C    -1.8680692640343208    1.9758605679347065    -4.806794749786647
H    -1.917222715206468    0.9981001919584012    -5.2860322539623334
C    0.11718673698656328    2.1233506421937913    -3.277779586550964
H    1.1880234456274477    2.3528818093712354    -3.2308419369219066
C    -0.3949056244520471    2.3729237339291336    -4.692646892937776
C    -0.6200103389001146    2.9365361508530987    -2.2141985473546217
H    -0.3129984923677483    3.423461888302468    -4.97580505211825
H    0.1669466126745568    1.7930200438043526    -5.425894007447757
H    -1.6978622497670008    2.7847848307585132    -2.3346578687296202
H    -0.3660246962101882    2.5401154898383416    -1.2285348713186992
C    -0.2918560488108491    4.424935990755709    -2.2507577294391936
H    -0.4998928069864356    4.863370320126258    -3.2273920105781038
H    -0.8695426628321822    4.981017188310926    -1.511272865134914
H    0.7673911580791741    4.585112796283513    -2.0350606860968
H    0.01940777409248233    1.0592795929609615    -3.042916990869558
C    -2.5105076139436067    1.9044138109741255    -3.425565830495696
O    -2.970592715038194    0.8550160390997854    -2.9756247053071285
N    -2.545412975375786    3.039528001314541    -2.735248229219942
H    -2.1555888429408414    3.876498499252361    -3.1446594300352837
C    -3.1319214875064647    3.107779438804761    -1.402164020897461
H    -3.4866808976942516    4.125908644666127    -1.2419807475655729
H    -3.957474462355502    2.397261678767433    -1.3606092571579844
C    -2.1066073727845405    2.754949256079522    -0.32984558483936954
O    -0.9166381950970357    2.588309341015719    -0.5973628643957614
N    -2.5708436567938318    2.637605020409239    0.9098947117406047
H    -3.5552735474808386    2.7832936235904815    1.082442158041806
C    -1.6957239388645915    2.3039868232978202    2.0273151240508387
H    -0.6878668630131548    2.6345223248655265    1.7761769213424958
H    -2.066015132056778    2.822595118871312    2.9116396504588
C    -1.6845890248982258    0.8017616061244912    2.2896515694401636
O    -1.0565273291739294    0.021146935408502432    1.5744311543044587
N    -2.3915128474897562    0.38330208237155927    3.33434833694404
H    -2.892911159076325    1.0590203230182322    3.893011556062234
C    -2.461033213839328    -1.0429202409568479    3.6967288625886328
H    -3.352047471737933    -1.489701380734128    3.25561639919555
N    0.9892702400423287    -4.502009175815592    -0.753909654643119
H    1.0975226001957368    -3.4820698028847126    -0.6823719434061016
H    1.605062693661922    -4.977629742201972    -1.39165631947001
C    -0.12826210335370025    -5.099966347289514    -0.3683003229674298
N    -0.4930403134764921    -6.265257619443223    -0.9223567674686219
H    -1.1919276696540382    -6.8467519530962475    -0.4946810801023922
H    -0.0754489688467595    -6.585157659285854    -1.7781038261894984
N    -0.9008086350193714    -4.563496668155164    0.5727012666143685
H    -1.7952962975561122    -5.000073628691646    0.7346858267255573
C    -0.46604010685584835    -3.565813026266058    1.5614591423407462
H    0.16855101619115695    -4.052827401623433    2.3063413647335502
H    0.12873064933239586    -2.8068632565168463    1.05905171573867
C    -1.6703348647425063    -2.9117518104059577    2.21866963810215
H    -2.247320411826122    -3.665987605451234    2.763302794154241
H    -2.3220749856309424    -2.5022912972641467    1.4432774634220285
C    -1.2408012741030352    -1.795854200236265    3.1628520357725365
H    -0.685012476363151    -2.181656841569932    4.018129887649265
H    -0.6089992889592396    -1.0736154882131534    2.6417394024488448
C    -2.531179444141374    -1.148909448931632    5.21642317203619
O    -3.3835146438409067    -1.8336671105432034    5.782102102364527
N    -1.619783168148028    -0.45995788067020205    5.895351419125363
H    -1.613463738305341    -0.4890373322505187    6.9049129330026755
H    -0.933468859274929    0.09270402684995205    5.401754938777067
