57
fragments fixed, E = -35816.782375 eV
N    -2.170728211687304    2.1882865756620564    -6.347036181309559
H    -3.069859786039363    1.793735360886112    -6.598571662904562
H    -2.262689118734078    3.1953387529207    -6.434216966581966
C    -1.8291873212403116    1.8657264855649582    -4.9642860128263715
H    -1.8013847676111063    0.7734223947181013    -4.881743962798658
C    0.11718673698656328    2.1233506421937913    -3.277779586550964
H    1.1880234456274477    2.3528818093712354    -3.2308419369219066
C    -0.3949056244520471    2.3729237339291336    -4.692646892937776
C    -0.6200103389001146    2.9365361508530987    -2.2141985473546217
H    -0.3129984923677483    3.423461888302468    -4.97580505211825
H    0.1669466126745568    1.7930200438043526    -5.425894007447757
H    -1.6978622497670008    2.7847848307585132    -2.3346578687296202
H    -0.3660246962101882    2.5401154898383416    -1.2285348713186992
C    -0.2918560488108491    4.424935990755709    -2.2507577294391936
H    -0.4998928069864356    4.863370320126258    -3.2273920105781038
H    -0.8695426628321822    4.981017188310926    -1.511272865134914
H    0.7673911580791741    4.585112796283513    -2.0350606860968
H    0.01940777409248233    1.0592795929609615    -3.042916990869558
C    -2.937294446024833    2.3685282939586187    -4.031900520401465
O    -3.3156420391596395    3.532073870408076    -4.018806929357021
N    -3.5299000512889935    1.415326218809925    -3.2623622214504984
H    -3.1158927246460157    0.49912218233400624    -3.2273394493039005
C    -4.700841593668473    1.669583370881809    -2.4445001783984477
H    -5.2894062011301655    2.442975839195914    -2.9414399444120995
H    -5.292727127914782    0.7598351064913829    -2.374157857775122
C    -4.438118647758912    2.124765133327306    -1.0099151130953576
O    -4.905513314909821    1.518175675804632    -0.055259692882080685
N    -3.7089950271131866    3.248981390876774    -0.8752803708830622
H    -3.436541247238093    3.745405413963258    -1.7130814891335764
C    -3.552914908025077    3.889809375281288    0.4194519006676824
H    -3.229244470087638    4.91486933422184    0.2554843978475986
H    -4.51862190687628    3.8949158206851613    0.930353985921428
C    -2.509983026019525    3.2682336572455872    1.360387895709398
O    -1.4367471134042862    3.815008046870661    1.545417616490744
N    -2.91987203058987    2.160489123724284    2.0309147106024983
H    -3.69696296868024    1.6516534861663457    1.6237820234807332
C    -2.072820725502109    1.5420241611281766    3.026304274805671
H    -1.3428594338132698    2.308220169507658    3.2961982634559597
C    -4.292432460838818    -2.9090302140371906    4.310712348082198
C    -4.783058401449417    -1.9882053075826573    3.394030992082555
C    -4.337922887393539    -0.6771172005322432    3.4195739130392298
C    -3.3858137699550976    -0.26104874475219964    4.3462767672853415
C    -2.9087848264651286    -1.1882939087295497    5.265212873107461
C    -3.359111797277515    -2.50288863419171    5.252145706170048
H    -4.633878085161529    -3.9355023112088    4.285338092844825
H    -5.516509201266228    -2.2865481807220998    2.65369863612344
H    -4.7253228759082555    0.03581341295374673    2.7022787814777542
H    -2.1712985703016248    -0.8796196022899742    5.995961737281487
H    -2.9816505122570316    -3.2113380116045542    5.978899867572863
C    -2.877203723726529    1.154658265000729    4.316415355015594
H    -3.7028323242081    1.866846230452274    4.295427548638581
H    -2.2575599954547214    1.3721918598632792    5.185034138966937
C    -1.2942501688877055    0.3693039330754168    2.4227949838710128
O    -1.5452710034205812    -0.08835041080899136    1.3288735038051127
N    -0.2827919996414686    -0.10047134857805609    3.2029032007898284
H    0.17050858493026413    -0.9535280179552875    2.9200990702743717
H    -0.1717988043750364    0.20316128271833445    4.153470044505013
