59
condensed pair, closure 0.058 A, charge 1
N    -2.6013862021279817    2.38658667939145    -3.615444956622372
H    -2.965135610058317    3.3193929670938784    -3.7483313662102047
H    -3.3663781131691364    1.747360834517845    -3.4533409921821763
C    -1.8680692640343208    1.9758605679347065    -4.806794749786647
H    -2.2837608359525325    2.4723122660020502    -5.68362781743534
C    0.11718673698656328    2.1233506421937913    -3.277779586550964
H    1.1880234456274477    2.3528818093712354    -3.2308419369219066
C    -0.3949056244520471    2.3729237339291336    -4.692646892937776
C    -0.6200103389001146    2.9365361508530987    -2.2141985473546217
H    -0.3129984923677483    3.423461888302468    -4.97580505211825
H    0.1669466126745568    1.7930200438043526    -5.425894007447757
H    -1.6978622497670008    2.7847848307585132    -2.3346578687296202
H    -0.3660246962101882    2.5401154898383416    -1.2285348713186992
C    -0.2918560488108491    4.424935990755709    -2.2507577294391936
H    -0.4998928069864356    4.863370320126258    -3.2273920105781038
H    -0.8695426628321822    4.981017188310926    -1.511272865134914
H    0.7673911580791741    4.585112796283513    -2.0350606860968
H    0.01940777409248233    1.0592795929609615    -3.042916990869558
C    -2.0035991644654616    0.46453984719148256    -4.958999628622072
O    -1.0322735062127228    -0.28722599380854974    -4.876929013141267
N    -3.2300069929578603    0.0052368770006660514    -5.1852862163519955
H    -3.997161479403245    0.6594750865543655    -5.244837531087169
C    -3.496596746218827    -1.41871275202339    -5.349789582452843
H    -3.3451355971315397    -1.6706956349490834    -6.399391481760201
H    -2.8015773969694564    -1.9671680290437559    -4.713987008317211
C    -4.927340116614028    -1.7618496453534702    -4.948721657400289
O    -5.802529633438758    -1.982207393249916    -5.785887574397692
N    -5.17559367914411    -1.809453580848884    -3.6439822067755783
H    -4.426246575591012    -1.621420818836187    -2.9934265990013778
C    -6.501761239447043    -2.1261112769545276    -3.12748292749512
H    -6.87935853324195    -2.989390440101362    -3.6754513300470046
H    -6.404608119281428    -2.3516923472731386    -2.0655156719001107
C    -7.459132961869761    -0.9531520425896574    -3.309776700355121
O    -8.277294469417813    -0.9180325646293971    -4.228873740843501
N    -7.359924570281653    0.028981246347769662    -2.4199380083443423
H    -6.663591029969913    -0.0415556094735791    -1.6917593540240192
C    -8.241295747471053    1.2320521951303058    -2.459175384537766
H    -8.098381265417428    1.8622213971860846    -1.5813586453491542
N    -2.98965419167988    1.070835641766168    -2.9644319150640768
H    -2.0507009107564356    1.4145825389560407    -2.7551088947160762
H    -3.250977373615515    0.4513295586510292    -2.1796602326433208
C    -4.007735367129729    2.1746486004047085    -3.0846689048127045
H    -3.678476357996471    2.841249719042652    -3.880222480394362
H    -3.9873657882047246    2.706555058243069    -2.1358202326012656
C    -5.372544515979213    1.578326089113671    -3.3549836342431103
H    -5.3383776691599625    0.9835380103607897    -4.27423678945064
H    -5.630172450309214    0.899288227069773    -2.5363939792798944
C    -6.448128471193208    2.6526361516017913    -3.4888090231731343
H    -6.202950774486346    3.303663027382036    -4.331204259282912
H    -6.451226053290126    3.282789344144308    -2.594599284919839
C    -7.826109495357071    2.0374273920007635    -3.692014047267572
H    -8.581118135851536    2.804815319697454    -3.8587829403778358
H    -7.834053787209995    1.369105101537057    -4.555345894443767
H    -2.941970697754408    0.5129937680876749    -3.8184091698786484
C    -9.704993162832203    0.8162843560037849    -2.560920066035871
O    -10.363050918580129    0.9976412559653373    -3.585337297898133
N    -10.22971589607608    0.24702201949761227    -1.4807129352259467
H    -11.19482581668342    -0.050708477515382155    -1.4851166034345231
H    -9.66337945972481    0.11213027432006178    -0.6553843594793545
