66
free relaxation, E = -43539.192589 eV
N    -2.8339245797843655    3.1502077009952956    -5.221694463266796
H    -2.3352173495423467    3.3668153568512573    -6.074656672432337
H    -3.673360553776306    2.6440939814125244    -5.476634858019082
C    -1.984264343657061    2.3645122968083703    -4.321280214159741
H    -1.9201265588666119    1.3074419144533842    -4.598046995353299
C    0.5323687768206153    2.1846994802325197    -3.649730695955004
H    1.4788432908394884    2.4772032836443345    -4.1148488738592
C    -0.5755288814958006    2.969164162533752    -4.355288630974502
C    0.6654347134166345    2.383994472063825    -2.1409265571104785
H    -0.6255806901015367    4.000006833687488    -3.9947078631837187
H    -0.3138540126931524    3.0320105350388    -5.416293033871807
H    -0.22610566221055886    2.0375431421791435    -1.6213855941501312
H    1.4725189261216547    1.7351708067583078    -1.7910482935100969
C    0.9682992252124404    3.8193674587388773    -1.727789227411747
H    0.12089521573796005    4.483965537307285    -1.9113132058334161
H    1.18162736400344    3.8605086994591664    -0.6608164503232404
H    1.8314998289521056    4.2185757428756085    -2.268051112021989
H    0.4045373947424093    1.119499157285567    -3.8664454465881564
C    -2.6086913680253034    2.362031534498484    -2.927422595350311
O    -2.5553738669341364    1.3870729001765087    -2.1886009718145907
N    -3.2260581654869847    3.5118736139259563    -2.580689058653502
H    -3.3247583997039145    4.17933790331854    -3.331470772465235
C    -4.151345910800882    3.5914163942746904    -1.4670183600093223
H    -4.822853629286447    4.429692398121062    -1.6314722966665856
H    -4.7476712382813    2.674049420252669    -1.4255527571364572
C    -3.566043390088796    3.803302740540525    -0.07651421569880396
O    -4.092904846439751    4.590496980117586    0.6935070141766789
N    -2.5049287662139776    3.0416908013502963    0.26735593176911165
H    -2.2000393033856507    2.305688801517078    -0.35850454362814227
C    -2.0743838484298265    3.0614996768627014    1.6415163275148275
H    -1.9512877549405703    4.098080026332946    1.9642308996283435
H    -2.8353886153988546    2.62453150344906    2.2969377593622546
C    -0.7504635549644759    2.3528414722774333    1.8453995142486002
O    0.08907298155133703    2.2233297516779675    0.9750886007669298
N    -0.5618170128150655    1.921052446731694    3.1173211840738486
H    -1.3455254251296285    1.8195782670321659    3.744904189366232
C    0.6404476863717699    1.2362677556140298    3.5087390731758057
H    0.9426453159652237    0.5142660773575803    2.7450175585361474
H    1.477299310885684    1.9287165192550648    3.632297952456776
C    0.3750021963354838    0.49435553200896765    4.805367512149143
O    -0.7691620566469982    0.3000840072123798    5.201952225437782
N    1.4591155133283364    0.05829285362708445    5.4722194405573035
H    2.373298804842431    0.2154316019976313    5.076672500450434
C    1.3544658853454001    -0.854003833297155    6.608264882648859
H    0.47779323043567673    -1.4813975067407472    6.426956271587797
C    3.9308661832684626    -3.5960792128987396    3.1915033264277057
C    4.880283744294945    -3.031780054032421    3.998167646430191
C    4.420123653168094    -2.402818393458627    5.155104351763568
C    3.062554301577763    -2.370917801393804    5.467218976073713
C    2.152088368557952    -2.971827551621199    4.5971724872514255
C    2.5825680957790476    -3.5977290626951195    3.4279157217655696
H    5.93622805452025    -3.0606006257888714    3.7638925453506427
H    5.13211099598123    -1.934673919975817    5.827305082661516
H    1.091480004813462    -2.957702145210563    4.824924434084393
H    1.8772359489661115    -4.060715626826339    2.749827589887998
C    2.617217341290622    -1.6937601205196464    6.742705371747718
H    2.4339386993389502    -2.43223656808761    7.526325257910398
H    3.415534553821398    -1.0545840586740765    7.124710973008363
H    2.5499246874007113    -2.9673376112815584    -3.271532928265887
O    2.8792985961615107    -2.1081581837557173    -2.9920607797493357
H    2.258823250578503    -1.810627296640647    -2.3196843345524205
C    1.1080550018579727    -0.061612430143575175    7.908823421700569
O    1.9702408050376186    0.07681417637551297    8.752842496851665
N    -0.14060001716620882    0.44381533715203053    8.012579275573014
H    -0.3356181030385513    1.0629703253515372    8.780522014849405
H    -0.7570261096834662    0.41852950619034196    7.212492682443972
