59
fragments fixed, E = -34253.092451 eV
N    -2.761652204288664    3.062577863603554    -5.614419594972084
H    -2.3457109443576947    3.9764279437340484    -5.4669231820235344
H    -3.177135886423557    3.1146361526531945    -6.539579659756719
C    -1.6955764082834555    2.054466281544682    -5.594255410239141
H    -1.2157923966407411    2.077000795434802    -6.5816413564018355
C    0.11718673698656328    2.1233506421937913    -3.277779586550964
H    1.1880234456274477    2.3528818093712354    -3.2308419369219066
C    -0.3949056244520471    2.3729237339291336    -4.692646892937776
C    -0.6200103389001146    2.9365361508530987    -2.2141985473546217
H    -0.3129984923677483    3.423461888302468    -4.97580505211825
H    0.1669466126745568    1.7930200438043526    -5.425894007447757
H    -1.6978622497670008    2.7847848307585132    -2.3346578687296202
H    -0.3660246962101882    2.5401154898383416    -1.2285348713186992
C    -0.2918560488108491    4.424935990755709    -2.2507577294391936
H    -0.4998928069864356    4.863370320126258    -3.2273920105781038
H    -0.8695426628321822    4.981017188310926    -1.511272865134914
H    0.7673911580791741    4.585112796283513    -2.0350606860968
H    0.01940777409248233    1.0592795929609615    -3.042916990869558
C    -2.174481900413945    0.607066879364113    -5.549161966518823
O    -1.4440396502767663    -0.2698885813583677    -5.1044554419249835
N    -3.4426440830647964    0.33245160861946277    -5.948045955372754
H    -4.06447978088919    1.0501462098855068    -6.293233330634647
C    -3.9874817902127337    -1.0174255050469936    -5.890663790512495
H    -3.8309160994949196    -1.543606848659229    -6.836103065319458
H    -3.4588880599495755    -1.578809908021309    -5.120368669726395
C    -5.4927239264348335    -0.9334008592601953    -5.645228498205142
O    -6.145036278543443    -0.04043365665566763    -6.149918389355761
N    -6.037416543075655    -1.8675702298587675    -4.821183844211447
H    -5.4614666227692945    -2.6445805142935535    -4.5418515567112525
C    -7.487127742658195    -2.052213267077432    -4.762114826053519
H    -7.897836774011874    -2.1969509303047365    -5.760525333352303
H    -7.680340136100137    -2.953243707136591    -4.178956846519495
C    -8.290265547316752    -0.8878262315436608    -4.16971223801913
O    -9.300815160718232    -0.5195181929425623    -4.7379130025519345
N    -7.846394210705549    -0.338447878983764    -3.0111070166096368
H    -7.010889027828927    -0.7425262699358918    -2.6231314264174364
C    -8.178562981149438    1.0319623338810393    -2.5615079040590905
H    -7.535309774547206    1.2110185133221119    -1.6993576427167152
N    -2.98965419167988    1.070835641766168    -2.9644319150640768
H    -2.0507009107564356    1.4145825389560407    -2.7551088947160762
H    -3.250977373615515    0.4513295586510292    -2.1796602326433208
C    -4.007735367129729    2.1746486004047085    -3.0846689048127045
H    -3.678476357996471    2.841249719042652    -3.880222480394362
H    -3.9873657882047246    2.706555058243069    -2.1358202326012656
C    -5.372544515979213    1.578326089113671    -3.3549836342431103
H    -5.3383776691599625    0.9835380103607897    -4.27423678945064
H    -5.630172450309214    0.899288227069773    -2.5363939792798944
C    -6.448128471193208    2.6526361516017913    -3.4888090231731343
H    -6.202950774486346    3.303663027382036    -4.331204259282912
H    -6.451226053290126    3.282789344144308    -2.594599284919839
C    -7.826109495357071    2.0374273920007635    -3.692014047267572
H    -8.581118135851536    2.804815319697454    -3.8587829403778358
H    -7.834053787209995    1.369105101537057    -4.555345894443767
H    -2.941970697754408    0.5129937680876749    -3.8184091698786484
C    -9.569537828958767    1.270420436633167    -1.9634040396163417
O    -9.663866084504143    2.1324092088939888    -1.111333066156165
N    -10.593882584172638    0.5150478409701489    -2.4025607982568324
H    -11.51030240600225    0.7399791706231545    -2.049818209699358
H    -10.504113526324753    0.004720672534821212    -3.269938778040042
