57
condensed pair, closure 0.002 A, charge 0
N    -2.2351282136402433    1.7715768881880312    -6.20296805769056
H    -3.238211249688179    1.8373337478297012    -6.300949985630979
H    -1.7944821686485022    2.4783368537049015    -6.774301072818978
C    -1.8680692640343208    1.9758605679347065    -4.806794749786647
H    -2.011494568537639    1.0499653739393042    -4.249796301167311
C    0.11718673698656328    2.1233506421937913    -3.277779586550964
H    1.1880234456274477    2.3528818093712354    -3.2308419369219066
C    -0.3949056244520471    2.3729237339291336    -4.692646892937776
C    -0.6200103389001146    2.9365361508530987    -2.2141985473546217
H    -0.3129984923677483    3.423461888302468    -4.97580505211825
H    0.1669466126745568    1.7930200438043526    -5.425894007447757
H    -1.6978622497670008    2.7847848307585132    -2.3346578687296202
H    -0.3660246962101882    2.5401154898383416    -1.2285348713186992
C    -0.2918560488108491    4.424935990755709    -2.2507577294391936
H    -0.4998928069864356    4.863370320126258    -3.2273920105781038
H    -0.8695426628321822    4.981017188310926    -1.511272865134914
H    0.7673911580791741    4.585112796283513    -2.0350606860968
H    0.01940777409248233    1.0592795929609615    -3.042916990869558
C    -2.7618496283577905    3.0676945326785936    -4.228279189251366
O    -2.9286355861524664    4.143857883447137    -4.802226823400278
N    -3.3504520083347695    2.791282783503977    -3.0692344173794317
H    -3.1844003809284454    1.8948415168102906    -2.6345852342393616
C    -4.2297080409897125    3.748718698061472    -2.4089395600957
H    -4.078848865078619    4.722096870895078    -2.875711926131369
H    -5.257042589223331    3.4092011689195933    -2.540892481287393
C    -3.9173582903058994    3.8482348633953145    -0.9195909890469323
O    -4.741813642718594    3.537621937547801    -0.059850340842774186
N    -2.704437488064813    4.289374668260291    -0.6026370490895168
H    -2.060666501404888    4.532594648391714    -1.3418954328767936
C    -2.279127970660023    4.431290305027991    0.7847114170305571
H    -1.4717138045890732    5.162851797347871    0.8163365238708924
H    -3.135636432326954    4.772055916855992    1.366408978387347
C    -1.7814042785219186    3.1041774076287587    1.3474435769797002
O    -0.8482171780412976    2.4882904738654785    0.8324619070959691
N    -2.4124305179073    2.650367195426232    2.425452471427163
H    -3.17228055920567    3.1901741847618927    2.814472174017192
C    -2.036083364239687    1.3934866129303805    3.060876601698151
H    -0.9885036354819967    1.4319474434714585    3.3595360673275785
C    -4.292432460838818    -2.9090302140371906    4.310712348082198
C    -4.783058401449417    -1.9882053075826573    3.394030992082555
C    -4.337922887393539    -0.6771172005322432    3.4195739130392298
C    -3.3858137699550976    -0.26104874475219964    4.3462767672853415
C    -2.9087848264651286    -1.1882939087295497    5.265212873107461
C    -3.359111797277515    -2.50288863419171    5.252145706170048
H    -4.633878085161529    -3.9355023112088    4.285338092844825
H    -5.516509201266228    -2.2865481807220998    2.65369863612344
H    -4.7253228759082555    0.03581341295374673    2.7022787814777542
H    -2.1712985703016248    -0.8796196022899742    5.995961737281487
H    -2.9816505122570316    -3.2113380116045542    5.978899867572863
C    -2.877203723726529    1.154658265000729    4.316415355015594
H    -3.7028323242081    1.866846230452274    4.295427548638581
H    -2.2575599954547214    1.3721918598632792    5.185034138966937
C    -2.243349700247546    0.26480668158437126    2.0565124851872887
O    -2.8287125280231815    0.44376882555335356    0.9884844373886663
N    -1.756069624994487    -0.9230085608793375    2.399869555934716
H    -1.861210080446846    -1.7111832013833115    1.7771126043928627
H    -1.280610978416778    -1.0375377540009056    3.2835675469460206
