59
free relaxation, E = -34255.657064 eV
N    -2.796927220033383    2.825910141132818    -4.945543928735558
H    -2.3853440775750934    3.7201043168108616    -5.190092201642854
H    -3.7194825200901738    2.807946963213133    -5.369620779927349
C    -1.9765615188183818    1.7535216429128089    -5.508778535682887
H    -2.0244947622974863    1.7351624255602225    -6.605450606736159
C    -0.10725350853665956    2.0522320888774157    -3.672910228385766
H    0.9762075175091914    1.9180857381636476    -3.6133428831099796
C    -0.48985530620995876    1.8951590570666672    -5.147778778757819
C    -0.44043292216525215    3.3925242688815316    -3.0039901423828606
H    -0.09504743644180794    2.7352392940902788    -5.724150647169923
H    0.015860570464068444    1.0110457937607171    -5.544493490558527
H    -1.5212932653051263    3.5429228207024583    -2.9728498268669923
H    -0.08174406697281457    3.349411772589694    -1.9700213234126585
C    0.1897120923693808    4.6037226213275355    -3.6828423706812954
H    -0.18836384748572613    4.741731019941    -4.697177111455418
H    -0.026346351405152884    5.51758816079613    -3.1293573935953045
H    1.2734234404585936    4.498604125451447    -3.7494303171679153
H    -0.5295057619738687    1.2214395515926988    -3.09946751026497
C    -2.5619951093688655    0.43911956268844715    -5.016613677586923
O    -2.8335671220986383    0.2318322067363597    -3.832206452348784
N    -2.779352460491379    -0.5058977378584846    -5.948179245643963
H    -2.6985105719324887    -0.21292341275344867    -6.908493498878987
C    -3.723739530430364    -1.5590444903122862    -5.6705201945236885
H    -3.626443664090548    -2.3499989323718813    -6.41307060925168
H    -3.511521826796588    -1.9866370658673265    -4.69221166409849
C    -5.148731366243084    -0.9851288849451841    -5.685463561992176
O    -5.35472612570418    0.2077357727423392    -5.796716309121088
N    -6.153481022919207    -1.8897341293598795    -5.556525969216621
H    -5.9237851945711535    -2.868111611555828    -5.623424938239688
C    -7.516197946133034    -1.492741898594914    -5.885288235787614
H    -7.566916463499213    -1.0570236608947472    -6.881963042222329
H    -8.14555826583957    -2.3819734377536124    -5.873361792450555
C    -8.148020934111194    -0.4596239709091879    -4.961170374733901
O    -8.998795913231868    0.29150306172931373    -5.408781860443368
N    -7.759200853005317    -0.4651521597286393    -3.6720790334112285
H    -7.066219036810204    -1.1414783701341438    -3.3989543601672487
C    -8.131576025848696    0.5619993560764086    -2.697025916439046
H    -7.534510503154335    0.35064335831647414    -1.8126700882008495
N    -3.042421293085586    1.7920155472175523    -1.705534278714931
H    -2.211574801253445    2.3255159606111517    -1.4537971580266755
H    -3.1795763089007356    1.0634581016941476    -1.0058509048169921
C    -4.256981736372157    2.6652908191523217    -1.8055696571941116
H    -3.9728773741391334    3.5221297663347904    -2.4154701711139057
H    -4.509743201900858    3.001944065954023    -0.8000801355679347
C    -5.38992295145788    1.8863523123940353    -2.442826161211591
H    -5.121338697498375    1.6414728968758665    -3.4742161573226924
H    -5.503461121283243    0.932103080132333    -1.9147515399974984
C    -6.699191163960834    2.6668420222694174    -2.398573234308441
H    -6.535364390260916    3.667000492439971    -2.809909237814068
H    -7.014707808680924    2.802759538244895    -1.3602094841871861
C    -7.813016558767156    1.9920482884034547    -3.193042773998944
H    -8.70921853948396    2.608643291660252    -3.1381987269949665
H    -7.533795798305793    1.947708362998137    -4.2458245023072845
H    -2.866033822804829    1.303388777915045    -2.635278663693602
C    -9.558472801403898    0.4662322447880257    -2.139742097460114
O    -9.714482267059925    0.563477007569194    -0.9363173406623084
N    -10.56124815717261    0.3194327976580603    -3.0263621325628476
H    -11.5012302366809    0.3204313977539309    -2.6673481548811098
H    -10.385426804382513    0.3804954175953952    -4.019946442432078
