59
free relaxation, E = -37878.513971 eV
N    7.1105423035369775    0.4225107443288331    -0.19512671770203968
H    6.852914770426325    1.3947226465797686    -0.1195092299817294
H    6.937651501779251    0.1311462437671264    -1.1468017071600247
C    8.503278411688393    0.18837100732454953    0.20014637827116194
H    8.986286849348065    -0.3958087233395067    -0.5880978802915243
C    9.360651597015337    1.4567588301760148    0.35533115493620543
H    10.404545531191346    1.1403954586239256    0.3992631102478081
C    9.108107707783825    2.4149101442360665    1.5337970466600237
H    9.686019597587876    3.31172663123028    1.2845399847084695
C    7.654346449207735    2.8595902433951226    1.6865244730669406
C    9.651087737458548    1.9036616234493404    2.869390501541227
H    7.00316776322243    2.0257356039749466    1.9638996108834812
H    7.568587563802464    3.6097909621501354    2.4743427790238863
H    7.261390811275745    3.304943400323017    0.7686288545834233
H    10.682767926019636    1.5672589041623761    2.7701691861681983
H    9.618121494008243    2.6987536951666296    3.6184160603957696
H    9.080052845398114    1.0595075573711026    3.2604412660126463
H    9.24325012582978    2.013738114254247    -0.5796513426510573
C    8.61197699526389    -0.733053153829138    1.4193019512513667
O    9.695058834257091    -1.0813826007071308    1.8508213520868202
N    7.428286707517103    -1.1415943808869151    1.953519727534727
H    6.608551574703371    -0.9033873333728927    1.412269150523215
C    7.391276222486655    -2.167023261043541    2.9697247965978533
H    6.5718423875325875    -2.863379857324091    2.7837260080706185
H    8.327201825581188    -2.7263898689568276    2.9451906197031312
C    7.233028051654834    -1.672715487407867    4.396059843369632
O    7.272143666897399    -2.455786898334217    5.333529444376633
N    7.022757578795537    -0.3496536639534847    4.564356247611169
H    7.004970859126983    0.23144694294916737    3.74334230692965
C    7.053436985534372    0.2705623002399748    5.870771283162888
H    7.854184912860388    -0.1844721382795037    6.460632395139073
H    7.280569213933569    1.3277882556758975    5.760973353031655
C    5.793460885712232    0.17283113368087727    6.722353928075609
O    5.526118810729116    1.069449116625054    7.5143206371100915
N    5.06629045323435    -0.9523066646704181    6.589286471861011
H    5.511976813226929    -1.7309081757917826    6.1148373757745125
C    3.942972367352393    -1.2479643661166155    7.46798389035773
H    3.519543848830086    -0.28386954105731976    7.75572491686998
C    4.17606700283283    -4.483786678139761    3.5486576076605933
C    4.6923822134523885    -4.771425613403743    4.783246208215448
C    4.245729376154504    -3.9915890125824487    5.848840050550798
C    3.3303907067484064    -2.9609163925189756    5.6401484536204425
C    2.8537476463717084    -2.7221023157068918    4.353478049359051
C    3.2700830989750322    -3.497007310917785    3.270567592930304
H    5.413125946073621    -5.561317469513435    4.940748054857968
H    4.614674187526604    -4.183453273650783    6.849378942536768
H    2.136747965778551    -1.9246183918875028    4.193045229681171
H    2.8823578510700716    -3.3171338585725842    2.2755150982258225
C    2.856413813843832    -2.092593222645036    6.779807279561934
H    2.402929559647394    -2.719355613475011    7.548506934662514
H    2.0837420495426744    -1.4241535006898918    6.399008784843788
H    3.3973108077960785    -2.867436070897969    -3.19333328697563
O    3.3359609836518396    -2.08497360415363    -2.6370016784855466
H    2.3920343737483667    -1.9457016833962018    -2.5157441563611296
C    4.449891894986941    -1.9051307770754136    8.76766349501754
O    4.15069416980628    -3.0374929068089855    9.096029802802985
N    5.248897422653794    -1.098427951950781    9.499380125501242
H    5.648235856396393    -1.4609730983883706    10.347254714637309
H    5.460679402972564    -0.16277554479155096    9.182795390790707
