63
fragments fixed, E = -45968.817656 eV
N    7.297242412429205    1.2965021051614738    -0.6419699068205804
H    7.457550871588983    2.25485040377753    -0.9324512723356464
H    6.9301852742332715    0.790965052716664    -1.4411502271585719
C    8.573273155174466    0.7071326687373091    -0.24047386398041345
H    9.281985915238883    0.7282021051362666    -1.0825910517492812
C    9.307427260299047    1.6196649371194556    0.795682150375625
H    10.251452468690445    1.0714002149550037    0.805253267307025
C    8.816917055899216    1.9113853070008846    2.2104068155164045
H    9.58146133063538    2.5045613128865694    2.724699128733303
C    7.525899663787565    2.724841407498607    2.1788325602280625
C    8.620012201818108    0.6151640369877205    2.9915807733439923
H    6.7495257128654504    2.1786343007918925    1.6377279611911146
H    7.151974948106173    2.922069272243191    3.1849894657877273
H    7.664094146681981    3.686499830036142    1.681518260599493
H    9.526465326007312    0.005994932638091648    2.985272402733273
H    8.355902325576114    0.8172450957798114    4.031320049731619
H    7.814593007337242    0.020740080272548138    2.548926612450783
H    9.459930366236106    2.540770079992641    0.2306050171018046
C    8.343385009382619    -0.8594175948946627    -0.18982816300849972
O    8.003250331182821    -1.3402935277111934    -1.2580832133268096
N    8.497384359269406    -1.6492906094599302    0.9169969678746255
H    8.6765323331506    -1.204688291174047    1.796889545618957
C    7.932691739070372    -2.9944387318686085    1.0118512426327477
H    7.5031235605444335    -3.2463216711834018    0.044790416723802365
H    8.716890876109254    -3.7258453074142954    1.2261495187499878
C    6.861083731799021    -3.0957993955172767    2.1279497091454216
O    6.740024315039477    -2.1995081412040713    2.9435589319710385
N    6.077144881854185    -4.218310378779115    2.156195761010983
H    6.090225753733302    -4.849930029088442    1.3659770980202348
C    4.795731768168716    -4.221870669664054    2.8721886474871554
H    4.899286020112107    -4.710319423349183    3.8437312678896585
H    4.4852459550250385    -3.1940438082982334    3.066520980421416
C    3.7218616781300593    -5.006341704215321    2.0813318914086687
O    4.0722756911318845    -5.854088809146904    1.2763213075676094
N    2.419135228639282    -4.771652585530536    2.3954192671161394
H    2.143374442263003    -3.922507684565016    2.8702937210432413
C    1.31722017285175    -5.524134816202221    1.7941851210102975
H    1.4849199680595235    -5.623702719580067    0.719467927446637
H    1.2773931044150946    -6.534413941669744    2.2076111648038146
C    -0.031237607472904397    -4.797758972352216    2.0033201309599358
O    -0.04366300813176224    -3.627374928933391    2.344853393253629
N    -1.1572977120457686    -5.5103069401147495    1.7240063173043767
H    -1.1227669121528283    -6.51669979588728    1.6623371663098148
C    -2.497238814137496    -4.918310795965389    1.7121550726741683
H    -2.587875982959726    -4.22103524820502    2.547393784592355
H    -2.647845659297122    -4.33597011028084    0.8002250772749759
C    -3.6186219732205167    -5.980385099625408    1.8614834825168305
O    -3.3533785787657306    -7.081338207558567    2.3186295659081795
N    -4.854085025578412    -5.554835290121028    1.5037099463378254
H    -4.976257956878675    -4.6440204967455685    1.06492093230444
C    -6.160316217086456    -6.176359115932078    1.8579424036787298
H    -5.9765167016509695    -6.8781951729711475    2.668596032179689
O    -6.625113390067254    -3.7589224174388995    0.3990322761737076
C    -7.466687201907631    -3.964734057500037    1.3085619679436657
C    -7.065232055557264    -4.989546192930536    2.3876086939972567
H    -7.888143088824324    -5.16219107999311    3.079819834415865
H    -6.201898342312742    -4.608512976175139    2.936128811623874
O    -8.586640768263367    -3.4191619904955295    1.4466443706786605
C    -6.77607141213739    -7.001150446691144    0.7300996765375981
O    -7.275467770233136    -8.089562365620765    0.9575447823647277
N    -6.727368247613304    -6.437250780949533    -0.5023899822736153
H    -7.30861313258498    -6.873968531428352    -1.1980233713502324
H    -6.603699250282672    -5.427218186596822    -0.5381740717380433
