59
condensed pair, closure 0.013 A, charge 0
N    7.153501350863082    1.5874952363992416    -0.38273862097793204
H    7.481039100586945    2.322619125416062    -0.9929942152190776
H    6.487213793930382    1.0117954684210595    -0.8774412272238685
C    8.282556139983038    0.7689903295327046    0.04275991086523856
H    8.775948721056945    0.3411946286452963    -0.8299683396477594
C    9.307427260299047    1.6196649371194556    0.795682150375625
H    10.251452468690445    1.0714002149550037    0.805253267307025
C    8.816917055899216    1.9113853070008846    2.2104068155164045
H    9.58146133063538    2.5045613128865694    2.724699128733303
C    7.525899663787565    2.724841407498607    2.1788325602280625
C    8.620012201818108    0.6151640369877205    2.9915807733439923
H    6.7495257128654504    2.1786343007918925    1.6377279611911146
H    7.151974948106173    2.922069272243191    3.1849894657877273
H    7.664094146681981    3.686499830036142    1.681518260599493
H    9.526465326007312    0.005994932638091648    2.985272402733273
H    8.355902325576114    0.8172450957798114    4.031320049731619
H    7.814593007337242    0.020740080272548138    2.548926612450783
H    9.459930366236106    2.540770079992641    0.2306050171018046
C    7.757256005397537    -0.3495874175153827    0.9363306089150789
O    8.062105481264213    -1.5277401632755372    0.750901634044318
N    6.951632122568792    0.019889181778284304    1.9266326850465607
H    6.728930649265477    0.9984154375861287    2.0406082108545784
C    6.380998133434434    -0.9508857504855022    2.8527735389844757
H    5.604094066952458    -1.503817731065187    2.324771364428351
H    7.18033939635446    -1.6171713764072058    3.177145254896239
C    5.7727750241177445    -0.26106843595861595    4.06926099139492
O    5.273247854673301    -0.8984306823686676    4.996408754072453
N    5.812691383224891    1.0673300822699452    4.0715106677699255
H    6.23259228170696    1.548229550644001    3.2888747774789797
C    5.265969826288143    1.8483746726409416    5.174610340071962
H    5.969944573917441    2.64891257952799    5.401895654901518
H    4.305440571154422    2.2538305249221584    4.856665216059701
C    5.064588923866519    0.9846976212912664    6.4152282035221795
O    5.740199982865473    1.139814532527151    7.432503702493304
N    4.118208270697157    0.05503363331458966    6.335669867905889
H    3.5871479019802637    -0.03529983175248934    5.481319383697416
C    3.8300924083201275    -0.8300813056874798    7.4416655928605335
H    3.3423485164990336    -0.2695463407273081    8.239165717655704
C    4.1556876074106865    -3.7835312443700593    3.4163672335472395
C    5.129036607963831    -3.341492582194848    4.26930401274674
C    4.6913851560934425    -2.726920153527842    5.441298589092671
C    3.3328811321184935    -2.574126442457316    5.711450982102379
C    2.402076154768857    -3.0254332080745674    4.778497795634135
C    2.8079310114890688    -3.6435089022221585    3.5938949239622846
H    6.18446173840121    -3.450961011750294    4.058145157466032
H    5.42131829476264    -2.362659726054509    6.156049874780157
H    1.342565989185355    -2.8969655848398768    4.973280545677201
H    2.085420421739104    -3.9969120657167196    2.869008581266445
C    2.8870783379774427    -1.9545852933550074    7.0090973960920335
H    2.872427101596511    -2.696893842853912    7.809725502798206
H    1.8823976969597551    -1.5433228123003753    6.925582636010076
H    2.7814257037102452    -3.169871941649232    -3.4138808439853805
O    3.005672565562057    -2.2807868037637045    -3.125331020466319
H    2.422274958667677    -2.1202565229211703    -2.3680979606881967
C    5.1486665866774555    -1.404302168077486    7.948871209317387
O    6.227879300003157    -1.105104252978478    7.43785112458824
N    5.066373990589556    -2.2461107483145053    8.973969859627905
H    5.9046413446978265    -2.660429868702016    9.355738781251494
H    4.165566740282053    -2.471540812305768    9.371245059007796
