63
free relaxation, E = -45970.205013 eV
N    7.383140205677693    1.39498778753416    -0.677785646666642
H    7.763357207617577    2.1376111079850397    -1.2483768215212694
H    6.726974920271936    0.8532249528576804    -1.227828269711447
C    8.437778639026622    0.5173371744947409    -0.19912857530571276
H    9.146514067332202    0.25154588471336853    -1.004478574198717
C    9.314606611286138    1.1990295115925322    0.8631843859667145
H    10.150955331856155    0.5282642849641084    1.0975533637248993
C    8.735266581186751    1.7277594882115181    2.1874698145748677
H    9.580866363561658    2.247471969874487    2.6550382226568177
C    7.622710557475364    2.762997641618852    2.0320466204165033
C    8.311632801926958    0.620643681584423    3.145076826529436
H    6.71251237236222    2.3161445047057345    1.6405385544267408
H    7.404131066797279    3.213840860459109    3.0025080628471765
H    7.913628164000756    3.5612551028982073    1.3465648121448595
H    9.136362299462172    -0.07063847968528615    3.348611417470261
H    8.013117814561785    1.0457344754534208    4.104735730273401
H    7.471955713495915    0.034191359618174016    2.7743770322139234
H    9.771338767574042    2.049764145135954    0.34302880972078736
C    7.809256526331229    -0.8468560250000107    0.0893363464311558
O    6.7895934048598905    -1.1888059871380245    -0.48269965439933576
N    8.515236870394618    -1.7269308824552552    0.8534711369865824
H    9.117710971060701    -1.3460718468627888    1.5628576157177754
C    7.934448034261729    -3.0290056767283047    1.0847047537868304
H    7.700516950311781    -3.488185388295712    0.12463677491153596
H    8.668052014240255    -3.6511928102666    1.5973884182233156
C    6.682096261134867    -2.962357377740429    1.954388767729495
O    6.545371658571131    -2.0993028244947354    2.8048697347274656
N    5.775788067260585    -3.9350633728165487    1.7584553979306063
H    5.84587062547007    -4.61166459670984    1.0136030976256734
C    4.5508652103978875    -3.9286014139385186    2.513991943387778
H    4.7463608663843395    -4.1214783336802325    3.5724916456677223
H    4.0810096456089475    -2.9445380504033607    2.4510677539680326
C    3.6200303228250403    -5.004588183183953    1.9814661862812053
O    4.022757079515107    -5.901311766570744    1.257023452624756
N    2.3482081315670573    -4.879386100664003    2.408633097161358
H    2.046248784861717    -3.9742604996508915    2.7493445905804794
C    1.2639303982938421    -5.664407023867705    1.8691390903834717
H    1.5162823079330388    -6.003750477983128    0.8625960507940943
H    1.0597410865785275    -6.550685333241204    2.4745315566723387
C    0.024835269893097374    -4.770153165222264    1.8146722199485774
O    0.12117823676254526    -3.5647850914021464    2.0042941485662134
N    -1.120800963451322    -5.399836070819447    1.5321405707084927
H    -1.2003771171000952    -6.407700829525862    1.6060020016776029
C    -2.4010462015914467    -4.733455653124114    1.5160681593517835
H    -2.420669242115501    -3.92976125209749    2.25200393990534
H    -2.606619996427428    -4.2870067882198395    0.5402307122318496
C    -3.4720967930186943    -5.7778306898253575    1.8362982386539528
O    -3.14914443394952    -6.939327339225403    2.0707947277811787
N    -4.717548729924954    -5.305092383031111    1.8474189900831988
H    -4.965458713268951    -4.395878825459072    1.4389856381311394
C    -5.887561076954267    -6.155035273729702    2.001694184968814
H    -5.677629893880479    -6.911390604036274    2.755367314721543
O    -6.465184113423252    -3.659027691457426    0.7433818360435723
C    -7.334426739101692    -3.977225080423006    1.6205819747096455
C    -7.078578944961344    -5.284787854134275    2.42886829840347
H    -7.993119597421092    -5.877602291445682    2.393415602958347
H    -6.945442556792021    -4.980159202401006    3.469159692110279
O    -8.354110546502971    -3.3597103833321103    1.9267013840029827
C    -6.231954180336512    -6.940895634701528    0.7286974075872567
O    -6.576749296253847    -8.109533309133894    0.7772969404421388
N    -6.150085079816906    -6.22415268378708    -0.42079640119812084
H    -6.556762554175057    -6.660965067048078    -1.2322551049904058
H    -6.204833175180637    -5.206514754711109    -0.32133341389663683
