59
fragments fixed, E = -37875.112471 eV
N    7.317688444076973    0.8974830068579528    -0.4746031350117291
H    7.427689796108658    1.8442627564580116    -0.8204340824148537
H    7.009320751152864    0.33931444230215746    -1.2613766707581373
C    8.625637416741538    0.47468660972759286    -0.01110827212907475
H    9.300279572948238    0.2966323529014785    -0.855161324691508
C    9.307427260299047    1.6196649371194556    0.795682150375625
H    10.251452468690445    1.0714002149550037    0.805253267307025
C    8.816917055899216    1.9113853070008846    2.2104068155164045
H    9.58146133063538    2.5045613128865694    2.724699128733303
C    7.525899663787565    2.724841407498607    2.1788325602280625
C    8.620012201818108    0.6151640369877205    2.9915807733439923
H    6.7495257128654504    2.1786343007918925    1.6377279611911146
H    7.151974948106173    2.922069272243191    3.1849894657877273
H    7.664094146681981    3.686499830036142    1.681518260599493
H    9.526465326007312    0.005994932638091648    2.985272402733273
H    8.355902325576114    0.8172450957798114    4.031320049731619
H    7.814593007337242    0.020740080272548138    2.548926612450783
H    9.459930366236106    2.540770079992641    0.2306050171018046
C    8.91928842185936    -0.9004523712247582    0.7990679352545109
O    10.099107681941454    -1.1784576469566133    0.8157243709481938
N    8.036120835695158    -1.7131981044462044    1.513847698037283
H    7.0498565881854764    -1.588091240183651    1.4042341347841618
C    8.423967747757514    -2.3952396699087997    2.7468266237389973
H    7.97195594694518    -3.3904215372117505    2.755433910648712
H    9.501331187389615    -2.5342541553896862    2.734816645206456
C    8.151955887462385    -1.7593904322223533    4.167023746350872
O    9.000349672090747    -1.9272851959969264    5.012733149018582
N    6.9687986527223185    -1.0996771278184652    4.471040771972848
H    6.346712547205894    -0.937633465214196    3.6945395368761105
C    6.965351710132114    -0.05787236739431078    5.5028728539566965
H    7.964122509870576    -0.018861241684400284    5.931314527718308
H    6.758378195235352    0.9065483047392744    5.02680762818074
C    6.037588498900248    -0.09894765408028162    6.724908876363226
O    6.504217359787279    0.10666260502194179    7.826674756860127
N    4.692011590605927    -0.23995027990158985    6.522814495471131
H    4.4184984417046955    -0.46520348210637796    5.579581497480121
C    3.808877173240702    -0.7995903777832127    7.552569239746674
H    3.163203158553461    -0.005625036643500996    7.932212228945598
C    4.1556876074106865    -3.7835312443700593    3.4163672335472395
C    5.129036607963831    -3.341492582194848    4.26930401274674
C    4.6913851560934425    -2.726920153527842    5.441298589092671
C    3.3328811321184935    -2.574126442457316    5.711450982102379
C    2.402076154768857    -3.0254332080745674    4.778497795634135
C    2.8079310114890688    -3.6435089022221585    3.5938949239622846
H    6.18446173840121    -3.450961011750294    4.058145157466032
H    5.42131829476264    -2.362659726054509    6.156049874780157
H    1.342565989185355    -2.8969655848398768    4.973280545677201
H    2.085420421739104    -3.9969120657167196    2.869008581266445
C    2.8870783379774427    -1.9545852933550074    7.0090973960920335
H    2.872427101596511    -2.696893842853912    7.809725502798206
H    1.8823976969597551    -1.5433228123003753    6.925582636010076
H    2.7814257037102452    -3.169871941649232    -3.4138808439853805
O    3.005672565562057    -2.2807868037637045    -3.125331020466319
H    2.422274958667677    -2.1202565229211703    -2.3680979606881967
C    4.620710639150246    -1.3868865988182186    8.726282667744176
O    5.193172494238763    -2.447703711442081    8.610238917132854
N    4.497808355869894    -0.7281492042455452    9.912338609548067
H    5.136027629398614    -1.033606215800651    10.631691180773961
H    4.3307922301100525    0.2637048115690804    9.878302248318912
