63
condensed pair, closure 0.028 A, charge -1
N    6.985059396546564    1.433644248391817    0.02036864209880219
H    7.031979016660108    2.244585857788631    -0.5798581945199094
H    6.285374452419939    0.7955007658404958    -0.33079211117495594
C    8.282556139983038    0.7689903295327046    0.04275991086523856
H    8.642771383237555    0.6315860809769381    -0.9767816777940539
C    9.307427260299047    1.6196649371194556    0.795682150375625
H    10.251452468690445    1.0714002149550037    0.805253267307025
C    8.816917055899216    1.9113853070008846    2.2104068155164045
H    9.58146133063538    2.5045613128865694    2.724699128733303
C    7.525899663787565    2.724841407498607    2.1788325602280625
C    8.620012201818108    0.6151640369877205    2.9915807733439923
H    6.7495257128654504    2.1786343007918925    1.6377279611911146
H    7.151974948106173    2.922069272243191    3.1849894657877273
H    7.664094146681981    3.686499830036142    1.681518260599493
H    9.526465326007312    0.005994932638091648    2.985272402733273
H    8.355902325576114    0.8172450957798114    4.031320049731619
H    7.814593007337242    0.020740080272548138    2.548926612450783
H    9.459930366236106    2.540770079992641    0.2306050171018046
C    8.116946422279593    -0.5888032412065535    0.7169965463733663
O    8.891783253580027    -1.520817510877038    0.5017332517992635
N    7.088521412319843    -0.7086449689558337    1.5501957777576472
H    6.4787060888707035    0.08314877728436088    1.6960996320643071
C    6.817863539879919    -1.953629638447525    2.2590832785763304
H    6.780014699977348    -2.7580894867794012    1.5245685968034715
H    7.624899667218832    -2.116847736652728    2.973332913919665
C    5.489013045182883    -1.8862903428472375    3.00423211069747
O    5.281668453326854    -1.0579456339603692    3.8909193517735927
N    4.567535742640935    -2.772759290771851    2.6418878196351656
H    4.782116447881802    -3.4338335743826938    1.9090604781100675
C    3.254847018579495    -2.8155958887715116    3.2749575942996687
H    3.3951554149089644    -2.6986343727802384    4.349542889981904
H    2.658481776272567    -1.9982921476922786    2.869417099914596
C    2.5519723359814916    -4.140312492276325    2.9979772683531767
O    3.1795397545040003    -5.179536390891339    2.794178780241992
N    1.223370685149452    -4.109000694016459    2.9891327957226324
H    0.7507470563014393    -3.2332107444836833    3.1615244131287983
C    0.430464817924307    -5.3062850679364    2.7369931247323733
H    1.0922317376772996    -6.067835184182934    2.3244328692962406
H    0.0041584286582705965    -5.633821242407951    3.6851929543482074
C    -0.694851967620176    -5.024161116862988    1.7471985963566308
O    -0.5800210889033668    -4.185486828360577    0.8534423056945176
N    -1.8065615949404434    -5.735236721301967    1.9044060684919382
H    -1.8557360512031669    -6.412562320803797    2.6520101783727976
C    -2.9570251166700645    -5.562800890435271    1.025507001816595
H    -2.8947703947081824    -4.5699298363877565    0.5800505846128168
H    -2.9141211807236753    -6.33638664394017    0.25880997283150353
C    -4.265458103625875    -5.689060714825671    1.798608919671415
O    -4.346897209276482    -5.396914495530954    2.9916635113069496
N    -5.312802060606865    -6.132436177320273    1.1110554053664554
H    -5.195225524414389    -6.35809080703958    0.13363239242721514
C    -6.647069285139163    -6.3066411417010055    1.730873744904722
H    -6.610194628326275    -7.072504515573113    2.5055953415096983
O    -6.625113390067254    -3.7589224174388995    0.3990322761737076
C    -7.466687201907631    -3.964734057500037    1.3085619679436657
C    -7.065232055557264    -4.989546192930536    2.3876086939972567
H    -7.888143088824324    -5.16219107999311    3.079819834415865
H    -6.201898342312742    -4.608512976175139    2.936128811623874
O    -8.586640768263367    -3.4191619904955295    1.4466443706786605
C    -7.651214563710499    -6.710068142767174    0.6563673864620876
O    -8.539681084085446    -5.947145701139396    0.2769763082412843
N    -7.512549123132002    -7.932150573472958    0.15285231404675992
H    -8.146656223150435    -8.258637316738097    -0.5622802556061236
H    -6.773060461801093    -8.534409695529746    0.48532858336895807
