73
condensed pair, closure 0.177 A, charge 1
N    -9.666545681016938    1.3953023634992734    -2.198837124854423
H    -9.84484350003044    2.335738609318386    -1.876518097670668
H    -10.185925532423218    1.2270038106011054    -3.048554823296425
C    -8.241295747471053    1.2320521951303058    -2.459175384537766
H    -8.020909319683257    0.1822596091216977    -2.6527350621782664
N    -2.98965419167988    1.070835641766168    -2.9644319150640768
H    -2.0507009107564356    1.4145825389560407    -2.7551088947160762
H    -3.250977373615515    0.4513295586510292    -2.1796602326433208
C    -4.007735367129729    2.1746486004047085    -3.0846689048127045
H    -3.678476357996471    2.841249719042652    -3.880222480394362
H    -3.9873657882047246    2.706555058243069    -2.1358202326012656
C    -5.372544515979213    1.578326089113671    -3.3549836342431103
H    -5.3383776691599625    0.9835380103607897    -4.27423678945064
H    -5.630172450309214    0.899288227069773    -2.5363939792798944
C    -6.448128471193208    2.6526361516017913    -3.4888090231731343
H    -6.202950774486346    3.303663027382036    -4.331204259282912
H    -6.451226053290126    3.282789344144308    -2.594599284919839
C    -7.826109495357071    2.0374273920007635    -3.692014047267572
H    -8.581118135851536    2.804815319697454    -3.8587829403778358
H    -7.834053787209995    1.369105101537057    -4.555345894443767
H    -2.941970697754408    0.5129937680876749    -3.8184091698786484
C    -7.47002454225975    1.7012697631264944    -1.230110454643642
O    -7.784877978556809    1.3525954703262686    -0.09228157858529706
N    -6.438628253956605    2.5080238285266603    -1.457290062960054
H    -6.217179703893309    2.767666163232701    -2.4078932386875813
C    -5.618545153127191    3.027947259830383    -0.36967462848177424
H    -6.1763217557085754    3.8254681020193377    0.12118764129151904
H    -5.419099134899836    2.209913633437571    0.3225264058311481
C    -4.2972071401990455    3.5822147189914766    -0.8916693021195464
O    -4.208846015577141    4.123420870055824    -1.9937805549909013
N    -3.2465148958085086    3.447721006910657    -0.08904968549639336
H    -3.3662197149688557    2.9967037953307654    0.8066925939168808
C    -1.9254941868863422    3.9344443159476947    -0.4682181270086227
H    -1.7199181406112722    3.5946939739732438    -1.483308366507631
H    -1.940492756332493    5.023187682485875    -0.4180890462901564
C    -0.850076353123822    3.399718485550715    0.4715529989214035
O    -1.116329091060447    2.6273008752647105    1.3923360976266899
N    0.39092213176601076    3.8150579199708154    0.2399133764110683
H    0.5623482316040009    4.449162365793339    -0.5273053955715032
C    1.5112998239896978    3.3789626544989098    1.0647398710149412
H    1.410358311906533    3.846253838775883    2.044305979164559
H    1.467336192088978    2.2928564066969144    1.1456127190887448
C    2.843800928400742    3.7863789012646296    0.44499975724572516
O    2.959881804018774    4.804891255329219    -0.23655641427175178
N    3.872592889194671    2.9792945754307487    0.682577097072259
H    3.730432387201608    2.154303913247028    1.2476264745453665
C    5.201167289359138    3.2540659650494383    0.14857827059916773
H    5.137842167692948    3.2331744735581944    -0.9393801268357865
H    5.509031309562595    4.238375676415972    0.5013588499593398
C    6.2102195897544785    2.2107669958339464    0.61651599711923
O    6.157167648522657    1.7130198155841525    1.7411467081016905
N    7.150116901510038    1.8694944477919728    -0.25890795235188857
H    7.153113853621125    2.3250737164177604    -1.1603171537007746
C    8.282556139983038    0.7689903295327046    0.04275991086523856
H    8.766455050351698    0.3687320216321848    -0.848158228752895
C    9.307427260299047    1.6196649371194556    0.795682150375625
H    10.251452468690445    1.0714002149550037    0.805253267307025
C    8.816917055899216    1.9113853070008846    2.2104068155164045
H    9.58146133063538    2.5045613128865694    2.724699128733303
C    7.525899663787565    2.724841407498607    2.1788325602280625
C    8.620012201818108    0.6151640369877205    2.9915807733439923
H    6.7495257128654504    2.1786343007918925    1.6377279611911146
H    7.151974948106173    2.922069272243191    3.1849894657877273
H    7.664094146681981    3.686499830036142    1.681518260599493
H    9.526465326007312    0.005994932638091648    2.985272402733273
H    8.355902325576114    0.8172450957798114    4.031320049731619
H    7.814593007337242    0.020740080272548138    2.548926612450783
H    9.459930366236106    2.540770079992641    0.2306050171018046
C    7.792036384548452    -0.377524523990607    0.9205520617636236
O    6.600449641879555    -0.5251348377579605    1.1920170318154337
N    8.724178467415028    -1.2082584882085898    1.3757808152973123
H    8.462942424250452    -1.9877897538973723    1.9624551163923583
H    9.693814438115526    -1.060060032045889    1.1350666654957395
