52
free relaxation, E = -36169.455221 eV
N    -9.453896151353812    0.6422733662414761    -3.084582811610674
H    -9.9461856969054    0.18923991510181334    -2.3232672133186894
H    -10.044790182204682    1.401831261665424    -3.408239466499884
C    -8.18816018788856    1.1998003038884046    -2.622980328982157
H    -7.6098333838444    0.3853418413117397    -2.1765973412989004
N    -2.9838464412737564    1.9337674971118533    -1.4069543437467067
H    -1.913075017716805    2.8142754573804942    -0.478561489584825
H    -3.533736879444681    1.6352528574960665    -0.6044024240458805
C    -3.8687953619048083    2.5563309655552433    -2.3955128047926406
H    -3.282309467366343    2.7896397724070447    -3.2873350808223694
H    -4.205827508989443    3.507805583463528    -1.9784726892748563
C    -5.090165561033907    1.7145593797155259    -2.7545572487979633
H    -4.796789458869326    0.8505990868279916    -3.3623939322495344
H    -5.4942086016753535    1.322279958383222    -1.8174348672143286
C    -6.1522388895948765    2.534931094235594    -3.476915220862666
H    -5.726143726169656    2.9363225421778534    -4.400691326706968
H    -6.400414747153888    3.4057188249138117    -2.8606603451840122
C    -7.4357216324544    1.7824222367084892    -3.822132477351697
H    -8.122193072840933    2.4693355045869056    -4.326046498821546
H    -7.232154079337214    0.9623062145882615    -4.514370949084959
H    -2.5446821665363206    1.102207010786695    -1.7847401810324355
C    -8.403764923824774    2.3036264918976705    -1.5882794419562265
O    -9.06472025340946    3.293878948470409    -1.8475728066689694
N    -7.842636811527528    2.0933879454574145    -0.36231060626668854
H    -7.163910734317764    1.3534643594529705    -0.27614154647843725
C    -7.742760570546787    3.167908132102086    0.5922857903318908
H    -8.458107560745356    3.9379920737673997    0.3066998216262076
H    -7.99285819415846    2.821156265111823    1.5984716985002903
C    -6.327873919492536    3.727092165570879    0.6253908131946508
O    -5.359776809707223    3.0534321010822234    0.3099125818171988
N    -6.2082634651769135    5.013900029821055    1.0255867482872634
H    -7.006228479710203    5.47240541340682    1.4318891105070668
C    -4.89173441856717    5.548561355285633    1.268886167711098
H    -4.284202819079541    5.431648225670233    0.37150666330107796
H    -4.978363966568608    6.610811338244492    1.4922817250948432
C    -4.2203983057525996    4.859958350799386    2.4546817583820992
O    -4.8741575577742315    4.479626116056592    3.4146682025830213
N    -2.8823786308266617    4.745506304233736    2.3672715475258688
H    -2.444015756973513    4.945645848389004    1.4800252832877994
C    -2.1159243094205804    3.9036273543446454    3.283879741126921
H    -2.7730810843629325    3.0901188810174722    3.6032967922915176
C    -1.3741103404549568    2.5658766605270187    1.346773952670041
O    -1.4204354261710992    3.3280282179739213    0.2539001876510035
O    -1.7291585012121347    1.411278611890223    1.3788139368981234
C    -0.9017295265091279    3.331053816427108    2.5607692459572857
H    -0.37558274091051486    2.660222213236148    3.2354126039597073
H    -0.22884925356226798    4.138890517482109    2.2757101162069486
C    -1.6831334182313882    4.6883438173475085    4.531837474949079
O    -0.5185221585230337    4.940581575552199    4.766215560744343
N    -2.713366991081251    5.046730323988386    5.32897989778183
H    -2.51196784112602    5.588783852475862    6.1511406838683165
H    -3.6656797307141207    4.843844543482123    5.057275984750353
