52
condensed pair, closure 0.012 A, charge 0
N    -9.456145901263374    0.4729304155776324    -2.730537186638867
H    -9.807946243289052    0.08041802686181959    -1.8689859437895384
H    -10.15336893946685    1.0842789080464006    -3.1308284003252025
C    -8.241295747471053    1.2320521951303058    -2.459175384537766
H    -7.428191523180756    0.5489365013860086    -2.2135853411697157
N    -2.98965419167988    1.070835641766168    -2.9644319150640768
H    -2.0507009107564356    1.4145825389560407    -2.7551088947160762
H    -3.250977373615515    0.4513295586510292    -2.1796602326433208
C    -4.007735367129729    2.1746486004047085    -3.0846689048127045
H    -3.678476357996471    2.841249719042652    -3.880222480394362
H    -3.9873657882047246    2.706555058243069    -2.1358202326012656
C    -5.372544515979213    1.578326089113671    -3.3549836342431103
H    -5.3383776691599625    0.9835380103607897    -4.27423678945064
H    -5.630172450309214    0.899288227069773    -2.5363939792798944
C    -6.448128471193208    2.6526361516017913    -3.4888090231731343
H    -6.202950774486346    3.303663027382036    -4.331204259282912
H    -6.451226053290126    3.282789344144308    -2.594599284919839
C    -7.826109495357071    2.0374273920007635    -3.692014047267572
H    -8.581118135851536    2.804815319697454    -3.8587829403778358
H    -7.834053787209995    1.369105101537057    -4.555345894443767
H    -2.941970697754408    0.5129937680876749    -3.8184091698786484
C    -8.506811812787808    2.160775631458547    -1.2790910664175006
O    -9.59495326892954    2.1872343845999884    -0.7041048876201769
N    -7.496617139265634    2.939945442522163    -0.9067442830091882
H    -6.621580774772494    2.8841494387678703    -1.4080407689131682
C    -7.618943141635295    3.873212420296573    0.2067246646225257
H    -8.017353416659727    4.81052801463956    -0.18161633161198054
H    -8.29732415191424    3.436243624544014    0.9394984881393567
C    -6.265883884423274    4.131388566001384    0.8610951439856007
O    -5.792964266420349    3.365950091715758    1.7012213112910008
N    -5.626334249000243    5.229759278246271    0.4727666202934482
H    -6.0529595555898865    5.828638066612819    -0.21964586126787333
C    -4.324737388626423    5.592532364822917    1.0204940166510426
H    -3.5971590102475552    5.560217888817589    0.20951591709712825
H    -4.401719241304292    6.598099553288705    1.4340256645805485
C    -3.8999031296732753    4.624797974758522    2.119871569044406
O    -4.599594311277819    3.667177267792031    2.449653060298593
N    -2.7313125972098584    4.874100552675791    2.7016665433099725
H    -2.19421690134183    5.674742665431834    2.4006675055015823
C    -2.2042779710742657    4.027182347635813    3.7588763901375475
H    -2.7315434452544074    3.0732160798861026    3.7525931001332666
C    -0.44693269586614004    3.0535825946400084    2.204385873586276
O    -1.4166488295058113    2.9891221848354497    1.4060324346122928
O    0.7172543602532868    2.6363169853465966    2.027558399499862
C    -0.714225833324586    3.7451688286999127    3.556112976462893
H    -0.3265483856778186    3.1289574968061373    4.369457756353044
H    -0.16797729802003333    4.6909312528885    3.5762011215948846
C    -2.4376549585426415    4.734956403058091    5.089371060623411
O    -1.5071399921700395    5.044994782013935    5.83326561022774
N    -3.702768518026244    4.9980057406315    5.400069833734799
H    -3.9229677990687724    5.465209813545396    6.268017200158028
H    -4.444017465033706    4.730711247062332    4.7682441835211264
