60
free relaxation, E = -37334.564573 eV
N    -9.679572628920697    2.166592291922224    -2.5270995922776076
H    -10.24154969254742    2.1699161935695623    -1.6851266601996082
H    -9.935700052260229    2.9788686650721865    -3.0770182578963237
C    -8.248460655459793    2.1704838711906325    -2.237049994643363
H    -8.043079495397444    1.27603112268808    -1.637526762158075
N    -3.238930271931238    0.9058674585216026    -1.2041262250874016
H    -2.2412502613618908    1.0780010942312157    -1.0493928603705562
H    -3.6799303051529253    1.2930346404100863    -0.33691879617043335
C    -3.8158882220284767    1.6397031782858453    -2.3685113637867583
H    -3.2996153068871292    1.3210145407952578    -3.271954049324937
H    -3.59930567008352    2.693496118982496    -2.199474660646016
C    -5.309629868276011    1.394036132802737    -2.4269782520340724
H    -5.501219988781502    0.33297981978906493    -2.620818340014769
H    -5.718045489486022    1.6281709876471395    -1.439078626099783
C    -5.975130675336075    2.257127737585952    -3.490575533929693
H    -5.551424719309907    2.0179984516278378    -4.46926147963498
H    -5.745522852614323    3.3031841864624707    -3.287658000088399
C    -7.491075320083754    2.086181380934467    -3.560864220208438
H    -7.888806587440062    2.8534311568541337    -4.227653984447333
H    -7.748332212317645    1.122744768993201    -4.005682691530168
H    -3.3968760696670044    -0.09792672107847654    -1.2721904882204695
C    -7.841313862956046    3.382775869033685    -1.3951818526154083
O    -7.307504916288691    4.383433814332088    -1.8582301238680827
N    -8.171938426995233    3.2952710658826927    -0.0834045420524351
H    -8.539458041797898    2.430130828761466    0.27380489179017886
C    -7.993406414591303    4.408204719348912    0.832277042178085
H    -8.206203419714349    5.333703888975464    0.2958468376534792
H    -8.678537238158714    4.300462154327415    1.6693274036666554
C    -6.57528334616587    4.4378545567620735    1.383228954937798
O    -6.287264314843284    4.046709752180849    2.5004923831885852
N    -5.637384384292842    4.904009962861035    0.5220973420826305
H    -5.903240257133436    5.04750858560458    -0.44426278510665174
C    -4.261374185944391    4.815024771408157    0.9241647285240449
H    -3.622565136390135    5.136024245017712    0.09990912851074604
H    -4.0716734694394    5.472753548157603    1.7743323983971802
C    -3.8847743744162186    3.382802927893516    1.2929651758802436
O    -4.357465428113788    2.4336966439916927    0.6648566990812822
N    -3.0088014810927963    3.254626531761083    2.2983724597372848
H    -2.757198348683215    4.091530930590664    2.795237344817688
C    -2.5476661157980542    1.9899538899131044    2.848298075398395
H    -1.9169776478492082    2.244138773111719    3.7029522784519746
C    -2.655643414044252    -2.8259181266217435    4.542099343807441
C    -3.4308986761697096    -2.611274852022386    3.412606273041705
C    -3.799033290240522    -1.3204294447879372    3.0618992000133987
C    -3.406979851204125    -0.22928955035664367    3.8298582711294147
C    -2.652554450675167    -0.4577684049114608    4.979980590233733
C    -2.271039121437448    -1.7471850952657804    5.327823323605638
H    -2.364955867000531    -3.829842535747455    4.82044274257703
H    -3.7546183922613263    -3.4505255830810126    2.8103194343397426
H    -4.413800975782901    -1.1559405056495415    2.1844444989511818
H    -2.3643435037339193    0.37633992256609994    5.6121829233286284
H    -1.6796476863577439    -1.9151700554961082    6.218177925106586
C    -3.750259676147984    1.1658132407550852    3.380298299642573
H    -4.5099123747566345    1.1240366088403309    2.603072329022851
H    -4.176142566606493    1.74678334390204    4.200246539100817
C    -1.6094936540603901    1.2845188843477982    1.8498220082841679
O    -1.5010279865346774    1.6596153535897717    0.6880731267421253
N    -0.8698504321489464    0.28177886738586844    2.345737637818212
H    -0.22666352902909148    -0.18792410052170896    1.7292419016709553
H    -1.0309023263541377    -0.09779083079986656    3.264873784350943
