73
fragments fixed, E = -45576.410754 eV
N    -9.671982413809795    1.0442139894142628    -2.2265363019422457
H    -10.083340697395608    1.9460880726072887    -2.0115373167230803
H    -10.129994161828368    0.6744922713941881    -3.0496947417806064
C    -8.24157772413526    1.1919344898979465    -2.438933266176651
H    -7.829071099388022    0.18339953919810573    -2.5522702816456007
N    -2.98965419167988    1.070835641766168    -2.9644319150640768
H    -2.0507009107564356    1.4145825389560407    -2.7551088947160762
H    -3.250977373615515    0.4513295586510292    -2.1796602326433208
C    -4.007735367129729    2.1746486004047085    -3.0846689048127045
H    -3.678476357996471    2.841249719042652    -3.880222480394362
H    -3.9873657882047246    2.706555058243069    -2.1358202326012656
C    -5.372544515979213    1.578326089113671    -3.3549836342431103
H    -5.3383776691599625    0.9835380103607897    -4.27423678945064
H    -5.630172450309214    0.899288227069773    -2.5363939792798944
C    -6.448128471193208    2.6526361516017913    -3.4888090231731343
H    -6.202950774486346    3.303663027382036    -4.331204259282912
H    -6.451226053290126    3.282789344144308    -2.594599284919839
C    -7.826109495357071    2.0374273920007635    -3.692014047267572
H    -8.581118135851536    2.804815319697454    -3.8587829403778358
H    -7.834053787209995    1.369105101537057    -4.555345894443767
H    -2.941970697754408    0.5129937680876749    -3.8184091698786484
C    -7.679607523606784    1.7989083859436485    -1.1377495885067106
O    -8.027388146163684    2.8868679922211156    -0.7403301841196916
N    -6.725001007496203    1.0443201980003993    -0.48420617667535026
H    -6.700454327621578    0.062049012368865564    -0.7015925726286962
C    -6.078323366300413    1.4756071378654119    0.7419347346165027
H    -6.624882265795235    2.340626381186752    1.1213256671635736
H    -6.127448251131594    0.6803852487519472    1.4865691293787553
C    -4.637546105399947    1.950547900990512    0.5095067862045957
O    -4.40496863142842    2.8830448097707553    -0.23835265235873412
N    -3.640929059566407    1.3032453068503087    1.1778558292727683
H    -3.891707952536326    0.5740126960898315    1.8228091777498667
C    -2.276220391350758    1.7938763927822057    1.1859278754016573
H    -2.290459931481754    2.7964903916545985    0.7537488422601584
H    -1.926091366287382    1.8771242086864144    2.216167451336962
C    -1.2922704921198769    0.9610441445814744    0.3467453517147498
O    -1.6644296947864765    0.37747315222321476    -0.667557438530613
N    -0.022523732261239448    0.9590608358576895    0.7982738194839083
H    0.1643719664062832    1.472302008834071    1.6443741087148915
C    1.0775310382218    0.18793353984173322    0.23229904921909597
H    1.4655425799886248    -0.4923199993835967    0.9922406935897097
H    0.6663484844769771    -0.4175226837614268    -0.5744556176813129
C    2.2015668517302163    1.0492454138485128    -0.37233914120534733
O    1.9342694202565585    2.020500428700428    -1.0551528192531945
N    3.459843017100706    0.607167559707162    -0.14677709712393336
H    3.6606707209338687    -0.11849179641508431    0.5278505573499241
C    4.626205831172238    1.2511237825017498    -0.7214345972172018
H    4.704738357814835    1.0282236979515142    -1.7881979563408823
H    4.5385920563028215    2.334435304462683    -0.6181617226842564
C    5.895384996133933    0.775476250811874    0.0003851778362795868
O    5.821732956146773    0.06258624802648562    0.9822852057210927
N    7.054607360391915    1.273246238744012    -0.5085772596603911
H    6.964997641820549    1.7621078424092163    -1.383599382057964
C    8.407507671539967    0.7845716069934212    -0.20018208104898533
H    8.943334011395722    0.9143451723567946    -1.1471541845648856
C    9.307427260299047    1.6196649371194556    0.795682150375625
H    10.251452468690445    1.0714002149550037    0.805253267307025
C    8.816917055899216    1.9113853070008846    2.2104068155164045
H    9.58146133063538    2.5045613128865694    2.724699128733303
C    7.525899663787565    2.724841407498607    2.1788325602280625
C    8.620012201818108    0.6151640369877205    2.9915807733439923
H    6.7495257128654504    2.1786343007918925    1.6377279611911146
H    7.151974948106173    2.922069272243191    3.1849894657877273
H    7.664094146681981    3.686499830036142    1.681518260599493
H    9.526465326007312    0.005994932638091648    2.985272402733273
H    8.355902325576114    0.8172450957798114    4.031320049731619
H    7.814593007337242    0.020740080272548138    2.548926612450783
H    9.459930366236106    2.540770079992641    0.2306050171018046
C    8.37544922708286    -0.7592492113655438    -0.1474074052190519
O    7.576164596235327    -1.3706991320175983    -0.8231783450675829
N    9.382073820271152    -1.372522034252708    0.520745635035994
H    9.362901189841244    -2.3783513006401082    0.5318846562497025
H    9.906928896030388    -0.902045075210511    1.231977256928591
