73
free relaxation, E = -45577.280351 eV
N    -9.31638709402445    0.9004350609867324    -2.055747599371738
H    -9.776628572613214    1.7620800754943349    -1.7827998678072237
H    -9.78556348421321    0.552162271566761    -2.8827803549270214
C    -7.904901693540355    1.1507220486453742    -2.3218608770252454
H    -7.4460494523986505    0.182153968530284    -2.5443939755785374
N    -2.7379327090856354    1.379242578066786    -2.8660044021643274
H    -1.783321328005518    1.7342358774357436    -2.932546228353738
H    -2.9959124146083784    1.4058675564890597    -1.8574321368383508
C    -3.7274978165925976    2.19927850778997    -3.638820198039648
H    -3.354095888955671    2.314376889544005    -4.654683879744556
H    -3.7324107717390533    3.1736784276019816    -3.153793184077875
C    -5.115954853698598    1.5675889589542147    -3.590779058522636
H    -5.254385359340745    0.8859641708032203    -4.434996089242778
H    -5.195127857191473    0.983292293267292    -2.671811178585855
C    -6.195542918285554    2.6495787218900926    -3.5666126825462228
H    -6.109017767380748    3.2818749415556536    -4.453440415047126
H    -6.000487524526049    3.2935249610425643    -2.7055836490196046
C    -7.629380529907699    2.12868855881709    -3.4739394561200707
H    -8.29225895416841    2.9847271127507367    -3.3374231000494556
H    -7.924737124988781    1.6383794237423712    -4.406491028566761
H    -2.7259259963223257    0.4024816790774828    -3.1553728224407283
C    -7.308773699159277    1.688383674148638    -1.026566380122313
O    -7.524880004541769    2.8179270584712355    -0.6380716885563898
N    -6.5152583792633845    0.8170493229709013    -0.338202381974207
H    -6.4086015773478024    -0.12243474485958637    -0.6791534212996737
C    -5.778082432451312    1.234010060352682    0.8178879618924045
H    -6.290126446621521    2.0950815343591813    1.2539295991387438
H    -5.748830000816795    0.43846201479525715    1.563532835189214
C    -4.3672196257174285    1.6754598046721128    0.4494479988037617
O    -4.105783555033509    2.1312281621748084    -0.6587389781393904
N    -3.4411555432207894    1.5606292764402059    1.4174394618931243
H    -3.6960165820700865    1.1262427730623983    2.2883382677924455
C    -2.072079001294887    1.9810106212379992    1.224358249171306
H    -2.066187976771783    2.8712744580380285    0.5932855288378089
H    -1.6454217873751529    2.250497135579921    2.1889606535096178
C    -1.2314427125961107    0.9278215921797615    0.5058654717399018
O    -1.6534651287348294    0.3555633824422967    -0.49044163285773945
N    -0.022477807289099105    0.7048299562699335    1.048587911160599
H    0.2507639914901522    1.266647731435306    1.8376577205723654
C    1.0124231367897771    -0.05766582973614775    0.38478169722137406
H    1.5189437042228868    -0.697461575197105    1.1066244190102172
H    0.5342679858560859    -0.689624303276175    -0.36194905305320274
C    1.9813792116744775    0.881549095457357    -0.3345265793660825
O    1.5638426495031736    1.784449964976563    -1.042596168700464
N    3.2794734484074914    0.6225297370293035    -0.12430483698086232
H    3.5910458954635986    -0.06671744601122857    0.5481348019778922
C    4.342756106415691    1.3961485540203236    -0.7130660448027906
H    4.387818059827292    1.247719075176263    -1.7944517118789722
H    4.193038310151165    2.4634837897699553    -0.5288858293812272
C    5.644781005978857    0.9385874892833347    -0.06333997490582564
O    5.632305519835167    0.21575318456559406    0.9172556456992543
N    6.770600543788057    1.4144603183889006    -0.6346261854259952
H    6.659318373064502    1.8733845397691509    -1.5227837125858505
C    8.084757598601207    0.839353413021633    -0.367461363112956
H    8.64125065034152    0.9915122841033195    -1.2974673472377565
C    8.931856017595459    1.574302027071891    0.6875839877077671
H    9.909121841618823    1.0803644273083595    0.7031395923251291
C    8.483704443065902    1.8138547596072654    2.1388967879822314
H    9.332579424292774    2.3531602442661863    2.5726940363428428
C    7.277080684653599    2.7429647299170323    2.2673519632832186
C    8.291888436156162    0.550072449446498    2.9732635393269713
H    6.349496468485134    2.224738156675691    2.032223214536341
H    7.197219405192951    3.0995170196848183    3.2959125894034735
H    7.370786462303742    3.6153078444472735    1.6164087082818352
H    9.21383485818304    -0.035947570825743805    3.0334424753861557
H    8.023927124273621    0.8173140743405272    3.9976720034863957
H    7.497401238547586    -0.07702597138119084    2.569325550909523
H    9.132245768357446    2.560444465942384    0.25754467498117056
C    7.972640789974908    -0.7002453595534225    -0.3606119424037952
O    7.182793457286554    -1.2509930987572055    -1.0985739819262248
N    8.888661282031391    -1.3763273806555567    0.3693626138963856
H    8.817895776571648    -2.380490438550987    0.3653086814706468
H    9.376059291496961    -0.9388602208635546    1.1285639517940262
