52
fragments fixed, E = -36166.660786 eV
N    -9.66346112642136    0.6699472953107012    -2.901778558641376
H    -10.039184315870143    0.09620234862590904    -2.155719389163248
H    -10.33007231584354    1.4253803858188656    -3.0355762073716095
C    -8.394001243161378    1.254386134402841    -2.4953920328765014
H    -7.732586149872489    0.4378969916627334    -2.1883468120041836
N    -2.98965419167988    1.070835641766168    -2.9644319150640768
H    -2.0507009107564356    1.4145825389560407    -2.7551088947160762
H    -3.250977373615515    0.4513295586510292    -2.1796602326433208
C    -4.007735367129729    2.1746486004047085    -3.0846689048127045
H    -3.678476357996471    2.841249719042652    -3.880222480394362
H    -3.9873657882047246    2.706555058243069    -2.1358202326012656
C    -5.372544515979213    1.578326089113671    -3.3549836342431103
H    -5.3383776691599625    0.9835380103607897    -4.27423678945064
H    -5.630172450309214    0.899288227069773    -2.5363939792798944
C    -6.448128471193208    2.6526361516017913    -3.4888090231731343
H    -6.202950774486346    3.303663027382036    -4.331204259282912
H    -6.451226053290126    3.282789344144308    -2.594599284919839
C    -7.826109495357071    2.0374273920007635    -3.692014047267572
H    -8.581118135851536    2.804815319697454    -3.8587829403778358
H    -7.834053787209995    1.369105101537057    -4.555345894443767
H    -2.941970697754408    0.5129937680876749    -3.8184091698786484
C    -8.553160426162648    2.258400660555673    -1.3531601724359417
O    -9.40902844593412    3.1216056202814086    -1.4018587964477751
N    -7.666401333667304    2.1376093592698715    -0.3301796427571099
H    -6.874679840243    1.5339066021574845    -0.48655716715146013
C    -7.413006860082082    3.2370021852888575    0.5651797405654093
H    -8.20648503756011    3.9722104392782476    0.44182421655288423
H    -7.408355715887291    2.9060465648292073    1.6057554038567246
C    -6.050014048407429    3.85130160000364    0.2681094325053532
O    -5.261172044871904    3.291943695972589    -0.4892778964689085
N    -5.804090140895085    5.008427015345582    0.9024973683218986
H    -6.422229017415168    5.224346018570874    1.6739483342698098
C    -4.442272883283025    5.448898905286628    1.1479799163576971
H    -3.782168726750557    5.033459831400623    0.3916372375926966
H    -4.394973341260663    6.537242139224388    1.0957780318924213
C    -4.048554300340306    4.9986271012145265    2.5563669654816072
O    -4.933429168591855    4.9326517698624    3.415367210877663
N    -2.7552749744598293    4.739108315076257    2.7034469394216933
H    -2.280004025982366    4.301388117986426    1.876700167839021
C    -2.16552197100284    4.106751044655829    3.8885066889765723
H    -2.7538045822695993    3.2151616608060447    4.131097345647287
C    -0.44693269586614004    3.0535825946400084    2.204385873586276
O    -1.4166488295058113    2.9891221848354497    1.4060324346122928
O    0.7172543602532868    2.6363169853465966    2.027558399499862
C    -0.714225833324586    3.7451688286999127    3.556112976462893
H    -0.3265483856778186    3.1289574968061373    4.369457756353044
H    -0.16797729802003333    4.6909312528885    3.5762011215948846
C    -2.1928504093351746    5.053909402765028    5.1085426714391975
O    -1.2191427109655053    5.683256715298488    5.46815608792643
N    -3.3761041987359786    5.0830118019730754    5.780532999804097
H    -3.4590310563250593    5.801554042235751    6.481240188110195
H    -4.205165383511992    4.844128067708353    5.252536214928924
