60
condensed pair, closure 0.016 A, charge 1
N    -9.481567788682693    0.5095817781966852    -2.7151553846246355
H    -9.828578935356079    0.1187067587852556    -1.8509216296228215
H    -10.168563010860868    1.1438676986772798    -3.0970178412558713
C    -8.241295747471053    1.2320521951303058    -2.459175384537766
H    -7.443279969062859    0.5243037233146823    -2.2347585445853815
N    -2.98965419167988    1.070835641766168    -2.9644319150640768
H    -2.0507009107564356    1.4145825389560407    -2.7551088947160762
H    -3.250977373615515    0.4513295586510292    -2.1796602326433208
C    -4.007735367129729    2.1746486004047085    -3.0846689048127045
H    -3.678476357996471    2.841249719042652    -3.880222480394362
H    -3.9873657882047246    2.706555058243069    -2.1358202326012656
C    -5.372544515979213    1.578326089113671    -3.3549836342431103
H    -5.3383776691599625    0.9835380103607897    -4.27423678945064
H    -5.630172450309214    0.899288227069773    -2.5363939792798944
C    -6.448128471193208    2.6526361516017913    -3.4888090231731343
H    -6.202950774486346    3.303663027382036    -4.331204259282912
H    -6.451226053290126    3.282789344144308    -2.594599284919839
C    -7.826109495357071    2.0374273920007635    -3.692014047267572
H    -8.581118135851536    2.804815319697454    -3.8587829403778358
H    -7.834053787209995    1.369105101537057    -4.555345894443767
H    -2.941970697754408    0.5129937680876749    -3.8184091698786484
C    -8.45943100211267    2.1563820632985253    -1.2660046903390867
O    -9.57208055397769    2.321459082088917    -0.7658831525086843
N    -7.379981019739715    2.7735575091814004    -0.796831796243209
H    -6.48723352168839    2.607721109197728    -1.2390989023720234
C    -7.451236825676409    3.683857388318363    0.3398479036562585
H    -7.538406057173656    4.699260882506626    -0.04674913341263226
H    -8.32694512901556    3.4163867626474667    0.9311975733662237
C    -6.202732943273258    3.579221570704231    1.2092812831031723
O    -6.134274368750537    2.7977126471439933    2.157921481476631
N    -5.192804750433853    4.379747197354038    0.8845586839742117
H    -5.293960498414582    5.004981860398878    0.097825482197609
C    -3.9425906888260425    4.378700097771424    1.6347104711083664
H    -3.1323281228462694    4.5976860006426845    0.9392827261085472
H    -4.011625979162314    5.146305899803123    2.4054993276543466
C    -3.694055328118825    3.0245051056751278    2.2904627855224646
O    -4.6190819934705045    2.2988513811232147    2.655309795147443
N    -2.421993851238401    2.6723390355798617    2.4456390018394343
H    -1.6979139051246248    3.3024360692314545    2.1313366636054747
C    -2.036083364239687    1.3934866129303805    3.060876601698151
H    -0.9877006881084631    1.42075852227665    3.357945629616819
C    -4.292432460838818    -2.9090302140371906    4.310712348082198
C    -4.783058401449417    -1.9882053075826573    3.394030992082555
C    -4.337922887393539    -0.6771172005322432    3.4195739130392298
C    -3.3858137699550976    -0.26104874475219964    4.3462767672853415
C    -2.9087848264651286    -1.1882939087295497    5.265212873107461
C    -3.359111797277515    -2.50288863419171    5.252145706170048
H    -4.633878085161529    -3.9355023112088    4.285338092844825
H    -5.516509201266228    -2.2865481807220998    2.65369863612344
H    -4.7253228759082555    0.03581341295374673    2.7022787814777542
H    -2.1712985703016248    -0.8796196022899742    5.995961737281487
H    -2.9816505122570316    -3.2113380116045542    5.978899867572863
C    -2.877203723726529    1.154658265000729    4.316415355015594
H    -3.7028323242081    1.866846230452274    4.295427548638581
H    -2.2575599954547214    1.3721918598632792    5.185034138966937
C    -2.2551559160518746    0.2727724959582343    2.0501184283145077
O    -2.854257894993705    0.45980041838030283    0.9911291105862943
N    -1.7624880941317667    -0.9173039069280919    2.3775899118632884
H    -1.874873134574817    -1.7005133986738818    1.7498539046724346
H    -1.2756903372558275    -1.0385166626730387    3.2541943903741335
