60
fragments fixed, E = -37330.846262 eV
N    -9.620936912794368    0.886717526597608    -2.514003545770579
H    -10.099070872666957    0.7191448605237661    -1.6379642819757283
H    -10.245035639146703    1.4628559032462318    -3.069082453817488
C    -8.360667495146465    1.5783776814391914    -2.327744877786369
H    -7.657935808041518    0.9239451728327821    -1.823864400873267
N    -2.98965419167988    1.070835641766168    -2.9644319150640768
H    -2.0507009107564356    1.4145825389560407    -2.7551088947160762
H    -3.250977373615515    0.4513295586510292    -2.1796602326433208
C    -4.007735367129729    2.1746486004047085    -3.0846689048127045
H    -3.678476357996471    2.841249719042652    -3.880222480394362
H    -3.9873657882047246    2.706555058243069    -2.1358202326012656
C    -5.372544515979213    1.578326089113671    -3.3549836342431103
H    -5.3383776691599625    0.9835380103607897    -4.27423678945064
H    -5.630172450309214    0.899288227069773    -2.5363939792798944
C    -6.448128471193208    2.6526361516017913    -3.4888090231731343
H    -6.202950774486346    3.303663027382036    -4.331204259282912
H    -6.451226053290126    3.282789344144308    -2.594599284919839
C    -7.826109495357071    2.0374273920007635    -3.692014047267572
H    -8.581118135851536    2.804815319697454    -3.8587829403778358
H    -7.834053787209995    1.369105101537057    -4.555345894443767
H    -2.941970697754408    0.5129937680876749    -3.8184091698786484
C    -8.495106514125748    2.921907666174455    -1.5277442570444493
O    -9.245464798765518    3.783028533317748    -1.9316106810591063
N    -7.658745098644958    3.1136483497100995    -0.4464503409177948
H    -7.466502086897454    2.2564228850097097    0.051119700319650664
C    -7.7622167274151685    4.33163051464744    0.35418443433687463
H    -8.068668548156298    5.143592486331708    -0.307203177678005
H    -8.529825467075582    4.246583783200271    1.1249120777521424
C    -6.499781488218277    4.785397016682069    1.1061123783199216
O    -6.610164579249694    5.4728137533125345    2.0923960101995576
N    -5.271663739238646    4.421981937378151    0.6017870372004935
H    -5.266845937430401    3.837601080991344    -0.21632274557590492
C    -4.047689042830732    4.586074296381153    1.3651759989828156
H    -3.212640016786676    4.739153915427604    0.6787322414337521
H    -4.160882748252405    5.48419130074722    1.9755108223938074
C    -3.7900030090947014    3.4104954413673827    2.340785242770203
O    -4.731873012504109    2.9192002338204754    2.9191373941925334
N    -2.495383267057261    2.938752561069512    2.405580892171542
H    -1.8040097817620284    3.5358302298847275    1.9749638373131992
C    -1.9147930684838144    2.0151038847522744    3.4097224216862427
H    -1.5026618076803482    2.7064179642661967    4.148993517367314
C    -4.292432460838818    -2.9090302140371906    4.310712348082198
C    -4.783058401449417    -1.9882053075826573    3.394030992082555
C    -4.337922887393539    -0.6771172005322432    3.4195739130392298
C    -3.3858137699550976    -0.26104874475219964    4.3462767672853415
C    -2.9087848264651286    -1.1882939087295497    5.265212873107461
C    -3.359111797277515    -2.50288863419171    5.252145706170048
H    -4.633878085161529    -3.9355023112088    4.285338092844825
H    -5.516509201266228    -2.2865481807220998    2.65369863612344
H    -4.7253228759082555    0.03581341295374673    2.7022787814777542
H    -2.1712985703016248    -0.8796196022899742    5.995961737281487
H    -2.9816505122570316    -3.2113380116045542    5.978899867572863
C    -2.877203723726529    1.154658265000729    4.316415355015594
H    -3.7028323242081    1.866846230452274    4.295427548638581
H    -2.2575599954547214    1.3721918598632792    5.185034138966937
C    -0.7404469136644182    1.1633903427325256    2.947369132197277
O    -0.8812677808031123    0.1076623666331788    2.3717177525101234
N    0.4751876709775169    1.6312152852335586    3.341277909254416
H    1.2532186441621318    0.9953405522614909    3.275546516776204
H    0.5496759208045432    2.3991993134935874    3.983969676188345
