49
fragments fixed, E = -34655.647746 eV
N    -6.70815041667612    2.4560989325628353    5.206225425169773
H    -5.7591370299208995    2.25249778021121    4.90298115321124
H    -7.049103843612395    3.1794878736774477    4.584166010039237
C    -7.544566306794771    1.262874005285052    5.0446391203690695
H    -8.568077221626037    1.5570221505757014    5.295263412960153
O    -7.900135667618918    1.7784729039592027    2.7930617553053936
H    -7.805432272568267    1.4839071026444497    1.879391664058572
C    -7.553193317954909    0.6881846930605845    3.6264527827336455
H    -8.277205914397967    -0.1307348918169545    3.556691981501678
H    -6.560266832015474    0.29256852343122663    3.3907160068099613
C    -7.013180070577039    0.29463797843705497    6.089670138477867
O    -6.116033069828362    -0.4952519542623153    5.862118253498944
N    -7.511428407783517    0.4527128535077797    7.344515002638222
H    -8.187913599204993    1.1752916436938405    7.517841385096
C    -6.9225203393402435    -0.2752553519682054    8.444299393462723
H    -7.568655748425866    -0.1779607590397684    9.316976576404075
H    -6.850877114268513    -1.3326035198444999    8.196105835925943
C    -5.518838855192957    0.15557392631064315    8.87164757554166
O    -4.857363712919852    -0.5746522913263662    9.580766940318815
N    -5.099827910815562    1.3865611325335934    8.4703695242698
H    -5.694575460708336    1.9441865875646231    7.874005729969151
C    -3.8410808149602182    1.9339393656163533    8.92992216528436
H    -3.980758398632831    2.9467382943221083    9.31028762464539
H    -3.4811821874381343    1.3091953235017386    9.746226908473576
C    -2.739723688724893    2.010569408120182    7.884052717804414
O    -1.6600833648731064    2.5193650003394863    8.138888588745049
N    -3.0466513340971386    1.5247826338510306    6.666845230112626
H    -3.902841440160263    1.0053915728026577    6.538374407191464
C    -2.116861043987665    1.5981936295037624    5.561354337417171
H    -1.2342401970314814    0.9819665652764231    5.754701904534566
C    -4.292432460838818    -2.9090302140371906    4.310712348082198
C    -4.783058401449417    -1.9882053075826573    3.394030992082555
C    -4.337922887393539    -0.6771172005322432    3.4195739130392298
C    -3.3858137699550976    -0.26104874475219964    4.3462767672853415
C    -2.9087848264651286    -1.1882939087295497    5.265212873107461
C    -3.359111797277515    -2.50288863419171    5.252145706170048
H    -4.633878085161529    -3.9355023112088    4.285338092844825
H    -5.516509201266228    -2.2865481807220998    2.65369863612344
H    -4.7253228759082555    0.03581341295374673    2.7022787814777542
H    -2.1712985703016248    -0.8796196022899742    5.995961737281487
H    -2.9816505122570316    -3.2113380116045542    5.978899867572863
C    -2.877203723726529    1.154658265000729    4.316415355015594
H    -2.276804723671924    1.3251360089577746    3.420200914930589
H    -3.7028323242081    1.866846230452274    4.295427548638581
C    -1.6868524113863061    3.055306133490131    5.336329610707503
O    -2.5020842301324246    3.908864945175534    5.0568324715875725
N    -0.3442772029294315    3.2774965075573332    5.362043408083929
H    -0.0736290703910955    4.248737733007758    5.350426748656818
H    0.20718165193194948    2.6770351251281457    5.953099614024157
