48
fragments fixed, E = -31571.048190 eV
N    -5.791289816913415    -0.7644328809875851    4.470406820004676
H    -4.905983738837834    -1.2186240947610125    4.2878675723573
H    -5.712425550003152    -0.29567111478562497    5.365994878222358
C    -6.12549762936099    0.165151575912122    3.42255402643285
H    -6.023498759998548    -0.3390326166490614    2.461385269424017
O    -7.900135667618918    1.7784729039592027    2.7930617553053936
H    -7.805432272568267    1.4839071026444497    1.879391664058572
C    -7.553193317954909    0.6881846930605845    3.6264527827336455
H    -7.548885754773642    1.0449217602338174    4.655058285745772
H    -8.277205914397967    -0.1307348918169545    3.556691981501678
C    -5.2344980458361094    1.4424989320360795    3.330948998418395
O    -4.393344000169315    1.765719304574737    4.089641795638668
N    -6.871143829976784    4.694482252018335    3.634680754370643
H    -7.255444223055004    3.7942258035814977    3.339460409289184
C    -5.958566145077989    5.0676285117426    2.8493195383788077
H    -5.631479229403686    4.50074494645743    1.9720137377675548
H    -5.450809960123739    6.014779113813112    3.031080960773788
C    -5.9902194635678    4.042958586385965    -1.093483511835426
O    -6.930310515398252    3.3387629099871803    -0.8577374622595162
N    -4.950469236201258    3.87224585913582    -1.9121950690597715
H    -4.32810614781268    4.652302768060936    -2.064731017614578
C    -4.755264915315859    2.7138622679390974    -2.7758024066131815
H    -4.591328084667702    1.815599153164236    -2.178332562098708
H    -5.63223607985766    2.5469928580956    -3.408068634623325
C    -3.562543052364505    2.973275345285636    -3.6877950297297657
O    -3.2556287803985087    4.100055969589534    -4.041063657921903
N    -2.887360765273798    1.869157477829156    -4.049842321589463
H    -3.1495008258495325    0.9539307188720798    -3.703214853033956
C    -1.8371389866086179    1.8549102845115415    -5.044213451838167
H    -2.1716101510007886    2.4520251480258786    -5.8983887644980175
C    0.11718673698656328    2.1233506421937913    -3.277779586550964
H    1.1880234456274477    2.3528818093712354    -3.2308419369219066
C    -0.3949056244520471    2.3729237339291336    -4.692646892937776
C    -0.6200103389001146    2.9365361508530987    -2.2141985473546217
H    -0.3129984923677483    3.423461888302468    -4.97580505211825
H    0.1669466126745568    1.7930200438043526    -5.425894007447757
H    -1.6978622497670008    2.7847848307585132    -2.3346578687296202
H    -0.3660246962101882    2.5401154898383416    -1.2285348713186992
C    -0.2918560488108491    4.424935990755709    -2.2507577294391936
H    -0.4998928069864356    4.863370320126258    -3.2273920105781038
H    -0.8695426628321822    4.981017188310926    -1.511272865134914
H    0.7673911580791741    4.585112796283513    -2.0350606860968
H    0.01940777409248233    1.0592795929609615    -3.042916990869558
C    -1.7627065865702065    0.38644974806654475    -5.490274679179686
O    -2.2362469396492055    -0.5136950697347078    -4.821856196765594
N    -1.1244054515426223    0.16095299817626188    -6.663064435244538
H    -1.0688044002838633    -0.7824098531648322    -7.006910725738009
H    -0.8314635307985894    0.9114653341862684    -7.261690050468929
