41
free relaxation, E = -33487.850157 eV
N    -6.611654301943819    -0.33222310802213895    1.6625054430723056
H    -5.802191461005012    -0.399109222640673    1.0602616027157188
H    -7.021426487994899    -1.2685225305290224    1.7487658320095603
C    -6.281453679154323    0.17754493569544982    2.983694001519099
H    -5.659577218547559    1.0725119205144893    2.8665849098620555
O    -8.25775541997039    1.538696976675618    2.8010787945654148
H    -8.125945295843952    1.1726691631404365    1.9116938286772656
C    -7.58496388275446    0.6219591193658182    3.6461778408150955
H    -7.38440072200361    1.1155371878506624    4.593801804859563
H    -8.205527045600633    -0.2642336949530871    3.832155479839281
C    -5.490372143299353    -0.738775771855638    3.917652492103426
O    -5.391056724988608    -0.4753780484801362    5.121757420773327
N    -4.867869130688009    -1.7804648161566137    3.3491125657773835
H    -5.197077286333351    -2.162638166676251    2.453354710577431
C    -4.027799374781687    -2.6702056517438253    4.1193755378972865
H    -3.35379915007193    -3.185543577955308    3.439894186315484
H    -3.4512840064157957    -2.0823085215515373    4.837278034069571
C    -4.768123360374954    -3.7571310743510242    4.889879343871548
O    -4.467956187237547    -4.9344792189506315    4.80188283483594
N    -5.767543416653463    -3.3305282679150987    5.702729021727138
H    -5.903765375583814    -2.333618165424621    5.809794604866
C    -6.492090959750101    -4.305525760936162    6.483504450626643
H    -5.8151793596991785    -4.906328358180109    7.091580411973355
H    -7.18681201579462    -3.7780288113944747    7.139075738954693
C    -7.271336618282972    -5.306336746649251    5.620816477831287
O    -7.287452368829094    -6.492182168927249    5.898702585384261
N    -7.975092890798589    -4.74183353578494    4.606388244671488
H    -7.779067077726346    -3.7661871110732084    4.403302964199882
C    -8.318932956408089    -5.418364840172936    3.35293184518
H    -9.145347635586655    -4.834084448425692    2.938908689852279
O    -5.752042461846414    -3.607510388070773    1.4666172796945882
C    -6.814151137893944    -3.8421953441047196    2.0862573049404682
C    -7.15983497646926    -5.31475342915531    2.372862272300193
H    -7.41033031246901    -5.805272963224749    1.4308580531155528
H    -6.270928733901332    -5.810432683997557    2.766086338224409
O    -7.614219749889013    -2.9645512114036263    2.518064376383281
C    -8.887880833861017    -6.821056543067141    3.52958770706258
O    -8.62612894881666    -7.731886354108736    2.7722192362083486
N    -9.854693395745752    -6.933376574381375    4.499715529914828
H    -10.059021084400301    -7.890318652544569    4.741609841228701
H    -9.747213623669946    -6.318433702672358    5.290620978858509
