49
condensed pair, closure 0.000 A, charge 0
N    -6.998682528498318    2.5385966963861595    5.142236550184117
H    -6.6954861060092785    2.7305285246774837    6.086341471619546
H    -6.211515162137094    2.6156584895765644    4.514121101109495
C    -7.547139807947869    1.1895148686472958    5.071973937910141
H    -8.575962209732971    1.191807667344287    5.432000615615098
O    -7.900135667618918    1.7784729039592027    2.7930617553053936
H    -7.805432272568267    1.4839071026444497    1.879391664058572
C    -7.553193317954909    0.6881846930605845    3.6264527827336455
H    -8.277205914397967    -0.1307348918169545    3.556691981501678
H    -6.560266832015474    0.29256852343122663    3.3907160068099613
C    -6.6971010467798235    0.27734827744071844    5.950046380478786
O    -5.824814684577779    -0.4517674247568587    5.477957622801527
N    -6.951604729473547    0.3143492565491269    7.253925133676471
H    -7.676908892957858    0.9281546641376652    7.5963821266659455
C    -6.210806696764537    -0.5082612444742014    8.20276349627603
H    -6.81684599509244    -0.6130225763649815    9.10267539875465
H    -6.031745569047122    -1.4784799630506686    7.739392423954498
C    -4.875548878280981    0.13366480901091538    8.56420851289067
O    -3.8823510906158862    -0.5404935034017353    8.83702662882524
N    -4.845157797794465    1.4623121230466491    8.567909476615485
H    -5.68475042810582    1.974257839802652    8.337484221441398
C    -3.631086115136971    2.1999688920733598    8.8960198855913
H    -3.923940963933564    3.1788490697902154    9.275663975772277
H    -3.0883774197184266    1.6352999040913372    9.654120278631998
C    -2.7451937956275634    2.3783355203161713    7.66760418064304
O    -2.017966493436188    3.36159830776189    7.527262662296082
N    -2.8029374642679317    1.4118603579305056    6.757201835949468
H    -3.4142581380982433    0.6234669068493401    6.914754366998589
C    -2.006577327411883    1.4603024297545046    5.536862536417616
H    -1.2167214860036228    0.7105957615860206    5.5834206881953685
C    -4.292432460838818    -2.9090302140371906    4.310712348082198
C    -4.783058401449417    -1.9882053075826573    3.394030992082555
C    -4.337922887393539    -0.6771172005322432    3.4195739130392298
C    -3.3858137699550976    -0.26104874475219964    4.3462767672853415
C    -2.9087848264651286    -1.1882939087295497    5.265212873107461
C    -3.359111797277515    -2.50288863419171    5.252145706170048
H    -4.633878085161529    -3.9355023112088    4.285338092844825
H    -5.516509201266228    -2.2865481807220998    2.65369863612344
H    -4.7253228759082555    0.03581341295374673    2.7022787814777542
H    -2.1712985703016248    -0.8796196022899742    5.995961737281487
H    -2.9816505122570316    -3.2113380116045542    5.978899867572863
C    -2.877203723726529    1.154658265000729    4.316415355015594
H    -2.276804723671924    1.3251360089577746    3.420200914930589
H    -3.7028323242081    1.866846230452274    4.295427548638581
C    -1.3900715366910443    2.8501027201853013    5.418537717693282
O    -1.9644984076813188    3.7689830132766127    4.834539621075881
N    -0.19737239711838983    3.012823577420141    5.981770959861576
H    0.2636736671922805    3.910375024875385    5.937749081725386
H    0.24799698700463496    2.2389350839206443    6.453833149954107
