41
condensed pair, closure 0.000 A, charge -1
N    -6.079331600637171    -0.22102973720443442    1.8857150123142883
H    -5.224506487606218    -0.7323034156850637    1.7184629515661312
H    -6.870134784532347    -0.7969522536883558    1.6346302072223033
C    -6.165215658479038    0.1351665059654541    3.296924481160169
H    -5.431558197791114    0.9079943917737556    3.526236036241934
O    -7.900135667618918    1.7784729039592027    2.7930617553053936
H    -7.805432272568267    1.4839071026444497    1.879391664058572
C    -7.553193317954909    0.6881846930605845    3.6264527827336455
H    -7.548885754773642    1.0449217602338174    4.655058285745772
H    -8.277205914397967    -0.1307348918169545    3.556691981501678
C    -5.875944951741039    -1.1109990143234003    4.1269961372637285
O    -6.647429424915038    -2.0699471088484986    4.151311968693512
N    -4.7435775205781265    -1.1028277510148088    4.82263845289544
H    -4.1410558389598595    -0.2937990318755067    4.772238504604638
C    -4.3486308587750555    -2.2316115689606826    5.65668175313479
H    -3.3972987910308183    -2.6101009040659267    5.282765826631164
H    -4.249227365110393    -1.8745124926590195    6.681717945252784
C    -5.3900770561255955    -3.344540870520041    5.6076594341902615
O    -5.811383326496384    -3.7947268621251062    4.542204320396714
N    -5.8169551607758585    -3.8007625562939333    6.7806376339876095
H    -5.443026889536526    -3.401198714647793    7.629534791726368
C    -6.811128863333698    -4.863179743941766    6.873655742616557
H    -6.420086606570424    -5.633114151059436    7.538777507530206
H    -7.728352073946142    -4.431999561050768    7.274760756043075
C    -7.09550703946809    -5.473677022571924    5.505428010941874
O    -6.631808259393106    -6.563663518512501    5.170355063624197
N    -7.872422750744482    -4.762019775778237    4.695374345646836
H    -8.230430560249877    -3.8726044565893103    5.012975980285589
C    -8.22127883603618    -5.2320822117544115    3.3600448723233187
H    -9.090168392816643    -4.685575018789657    2.99335586764001
O    -6.625113390067254    -3.7589224174388995    0.3990322761737076
C    -7.466687201907631    -3.964734057500037    1.3085619679436657
C    -7.065232055557264    -4.989546192930536    2.3876086939972567
H    -6.7670412926101475    -5.9287631090012125    1.9192927429427546
H    -6.201898342312742    -4.608512976175139    2.936128811623874
O    -8.586640768263367    -3.4191619904955295    1.4466443706786605
C    -8.546655333599544    -6.719683535927469    3.4424914316933863
O    -7.682129326827497    -7.583739603563189    3.296330918569366
N    -9.816649831013592    -7.030190836196753    3.681112874605623
H    -10.095932957467388    -7.998556473961134    3.74721073293232
H    -10.502524298531345    -6.297801401044845    3.796360130907489
