41
fragments fixed, E = -33486.702752 eV
N    -6.607510723110181    -0.41959031709012234    1.7381183354010086
H    -5.8128753937021385    -0.6160189646387401    1.1470625800771568
H    -7.232870839267637    -1.226321649832083    1.7247749607789309
C    -6.2679085051409285    0.07252561029973435    3.0652563097094476
H    -5.540856674561807    0.883205336115247    2.9448106668068355
O    -7.900135667618918    1.7784729039592027    2.7930617553053936
H    -7.805432272568267    1.4839071026444497    1.879391664058572
C    -7.553193317954909    0.6881846930605845    3.6264527827336455
H    -7.548885754773642    1.0449217602338174    4.655058285745772
H    -8.277205914397967    -0.1307348918169545    3.556691981501678
C    -5.581355195879786    -0.8951728543213322    4.015912878670063
O    -5.428759474965644    -0.6215061035673548    5.206159946728641
N    -5.064579699888125    -2.0133193363436614    3.4683863984736107
H    -5.314878439658576    -2.272737212236156    2.5225854819295566
C    -4.094160603738492    -2.818241129884163    4.18493247849218
H    -3.4779263319840323    -3.356670429962385    3.4693724514137156
H    -3.4616619543736236    -2.1491998884539543    4.773472865710938
C    -4.6921640803507945    -3.865761327166042    5.113215121540002
O    -4.335599927495029    -5.0277604698810325    5.074635968808547
N    -5.653053091815305    -3.4211215796161607    5.962127553503377
H    -5.822860460257267    -2.423667769798451    6.017256943150682
C    -6.4341481334529655    -4.398765531061056    6.687062676635578
H    -5.798080310051635    -5.044665633420907    7.290282892810681
H    -7.131945399799059    -3.8739153935302295    7.340187843865644
C    -7.209082275029803    -5.3314223179921045    5.740225217640255
O    -7.260902147913014    -6.52696523938384    5.947217567286366
N    -7.852909409389999    -4.684723641508864    4.729627831977629
H    -7.648139534315839    -3.698528314330769    4.670374997962517
C    -8.178009820326173    -5.245547116512449    3.4061172875156926
H    -9.032896653974014    -4.66801579217109    3.0380851345678983
O    -6.625113390067254    -3.7589224174388995    0.3990322761737076
C    -7.466687201907631    -3.964734057500037    1.3085619679436657
C    -7.065232055557264    -4.989546192930536    2.3876086939972567
H    -6.7670412926101475    -5.9287631090012125    1.9192927429427546
H    -6.201898342312742    -4.608512976175139    2.936128811623874
O    -8.586640768263367    -3.4191619904955295    1.4466443706786605
C    -8.679254717177901    -6.683151460388944    3.493825817926267
O    -8.294245111937595    -7.573737698761981    2.769442713568922
N    -9.732702680953343    -6.857851316216555    4.3614439970367735
H    -9.88654614339961    -7.822153749950568    4.609715043171174
H    -9.763947152097773    -6.219210213928892    5.139525514714497
