41
fragments fixed, E = -33486.341100 eV
N    -9.515998509123918    -0.5614379188741714    2.576663576435638
H    -9.545854472629719    -1.4317628520516301    2.048643049368317
H    -10.400647641642902    -0.4492909208965485    3.0569626040280946
C    -8.425569584552528    -0.627192236709771    3.5133464067574613
H    -7.756042264126668    -1.4038557635380284    3.12843413002396
O    -7.900135667618918    1.7784729039592027    2.7930617553053936
H    -7.805432272568267    1.4839071026444497    1.879391664058572
C    -7.553193317954909    0.6881846930605845    3.6264527827336455
H    -7.548885754773642    1.0449217602338174    4.655058285745772
H    -6.560266832015474    0.29256852343122663    3.3907160068099613
C    -8.820357740177494    -1.1316673844641796    4.90554820205107
O    -9.910882354690104    -1.5993179622909208    5.165011121706577
N    -7.83290635000196    -1.0671174257361098    5.867293282354676
H    -6.9858088690412234    -0.5702128632773313    5.655726925748922
C    -8.1151405670255    -1.3934872493113648    7.250087876603292
H    -7.557725222876707    -0.7233787416340367    7.907140731457588
H    -9.175909133532567    -1.2460339039194124    7.438900477181819
C    -7.794421669250545    -2.830738678302176    7.666073780878787
O    -8.265621537073965    -3.3062311273685343    8.682020811130773
N    -6.948027694026414    -3.4803911714035376    6.836797350470685
H    -6.714991090151963    -3.001622116592116    5.981445578530978
C    -6.7232037253129855    -4.912046403755752    6.871658557447894
H    -5.712088703211734    -5.15333799820974    7.194526727707486
H    -7.431121624445914    -5.347907224940719    7.5773007745743035
C    -6.9122506813002795    -5.530660968096876    5.485335343468177
O    -6.1895407885174745    -6.426152203103987    5.094021895356034
N    -7.8911116621886785    -4.945752085440847    4.765917233913801
H    -8.496147142891163    -4.296363336372484    5.23917424107684
C    -8.215043564030985    -5.225270622227202    3.387498404236544
H    -8.946115078248774    -4.460695570805838    3.102550064319283
O    -6.625113390067254    -3.7589224174388995    0.3990322761737076
C    -7.466687201907631    -3.964734057500037    1.3085619679436657
C    -7.065232055557264    -4.989546192930536    2.3876086939972567
H    -6.7670412926101475    -5.9287631090012125    1.9192927429427546
H    -6.201898342312742    -4.608512976175139    2.936128811623874
O    -8.586640768263367    -3.4191619904955295    1.4466443706786605
C    -8.959338525710011    -6.537077333212042    3.2058257236399808
O    -9.266815230371737    -7.293550183610689    4.106179368128998
N    -9.307432844248838    -6.749281410909364    1.9017666663382367
H    -9.981110607735525    -7.472524200636229    1.7194513393089117
H    -9.236908720136855    -5.980717066464566    1.2502444649714664
