34
free relaxation, E = -27826.420006 eV
N    -9.907763666722076    0.2658322057243433    3.3352919676336223
H    -10.389140551023932    -0.3790221400016165    2.722928016990629
H    -10.417342249763523    0.2585361626796477    4.214334696721769
C    -8.556510609911166    -0.21780594014599594    3.5944016996168755
H    -8.25953760324244    -0.9006014131397826    2.793578841730137
O    -7.850253747721172    1.8048028424044775    2.4884908121834184
H    -8.812973118553229    1.7481555036936283    2.372537093646931
C    -7.6023934294604425    0.9858208231231569    3.6076294055140354
H    -7.732359060427378    1.549214055675208    4.543088758876746
H    -6.563120511798496    0.6591719815009666    3.5533931820955256
C    -8.47863051890171    -0.9925490025672074    4.906877977999747
O    -9.440569327568735    -1.1235741388222769    5.647157088333047
N    -7.25399916710145    -1.5060296578845007    5.1794524665177
H    -6.552533531422982    -1.4062721424901938    4.46346853607009
C    -7.037333809685813    -2.5608722245506463    6.146309798933054
H    -6.400023032580265    -2.236538002551849    6.968489421892989
H    -8.002964841456208    -2.8370915326093677    6.566063889278331
C    -6.3919495000508855    -3.811217416799606    5.547574841772708
O    -5.991773483608456    -4.698775556746332    6.2827743981848645
N    -6.314695273068285    -3.797980403534155    4.205371012108744
H    -6.944465248589472    -3.1970375221849445    3.661566673823424
C    -5.839903839193633    -4.903877080238231    3.3981482777899124
H    -5.669798652300498    -5.757114679087246    4.0581364898620285
O    -6.933796073824731    -4.051467317611094    0.2657516188457396
C    -7.24907199393645    -3.9825773888271545    1.4688284408734869
C    -6.907721704499772    -5.218722857278256    2.3437636739422896
H    -7.8108082780871895    -5.531196989641421    2.8699372201447386
H    -6.57868505307746    -6.038441457460561    1.7061129853109092
O    -7.771194388101589    -3.0056162637560018    2.075520692152855
C    -4.454073520161282    -4.543732486147535    2.830270247652848
O    -3.525421535920319    -4.2979436469424055    3.580600687560494
N    -4.321419905878677    -4.551345912448675    1.4808658948138296
H    -3.439338740160533    -4.202528247430635    1.1433181113117488
H    -5.13129927802648    -4.483497684587584    0.8641002495988949
