34
condensed pair, closure 0.033 A, charge -1
N    -9.835496295161237    -0.06602688397249845    4.127816168558628
H    -9.776264505228157    -0.1547518183237625    5.1321664466417705
H    -10.041901263767588    0.8927835096860319    3.886611653785407
C    -8.564546898257493    -0.4557418880716856    3.529005809521659
H    -8.71091957615402    -0.6869611724919938    2.4739168646086913
O    -7.900135667618918    1.7784729039592027    2.7930617553053936
H    -7.805432272568267    1.4839071026444497    1.879391664058572
C    -7.553193317954909    0.6881846930605845    3.6264527827336455
H    -7.548885754773642    1.0449217602338174    4.655058285745772
H    -6.560266832015474    0.29256852343122663    3.3907160068099613
C    -8.04634777043203    -1.6903767400937375    4.258917753589857
O    -8.117487495750831    -2.8157126176918448    3.7650358830255852
N    -7.513578500906972    -1.4823058768163468    5.458544537762641
H    -7.476416096242734    -0.54142646057834    5.823872992415709
C    -6.981357737130222    -2.577210198639322    6.260847214224751
H    -6.1238921895927465    -2.200387018033866    6.818392840469497
H    -7.76783715730802    -2.912669186618706    6.93687782671256
C    -6.54013912294768    -3.741924641856445    5.380852100454075
O    -6.42378413517251    -4.884454656457874    5.824076290401668
N    -6.288390701605641    -3.453301098613317    4.10823268262423
H    -6.403399690247998    -2.500565050284632    3.793324831425655
C    -5.855079036349588    -4.4554439210036705    3.1564808766291352
H    -5.390997089106283    -5.29263097390728    3.6778692009071454
O    -6.625113390067254    -3.7589224174388995    0.3990322761737076
C    -7.466687201907631    -3.964734057500037    1.3085619679436657
C    -7.065232055557264    -4.989546192930536    2.3876086939972567
H    -7.888143088824324    -5.16219107999311    3.079819834415865
H    -6.7670412926101475    -5.9287631090012125    1.9192927429427546
O    -8.586640768263367    -3.4191619904955295    1.4466443706786605
C    -4.849607330032959    -3.825023800474664    2.198763737057685
O    -4.649298567965032    -2.6107129257497617    2.1725626041879558
N    -4.2019187044236705    -4.661174724017941    1.3940326780609071
H    -3.5228229642104214    -4.305120316305429    0.7366482894626445
H    -4.388790583188175    -5.652678667305103    1.4398456824704973
