34
condensed pair, closure 0.000 A, charge -1
N    -8.785183993175218    1.8989185123729646    5.371568773802706
H    -8.73189819958952    2.8390663320257565    5.006352808373971
H    -9.56244610799675    1.4158176472468944    4.944278288327541
C    -7.547139807947869    1.1895148686472958    5.071973937910141
H    -7.451219730316562    0.3244247177419267    5.728112924340402
O    -7.900135667618918    1.7784729039592027    2.7930617553053936
H    -7.805432272568267    1.4839071026444497    1.879391664058572
C    -7.553193317954909    0.6881846930605845    3.6264527827336455
H    -8.277205914397967    -0.1307348918169545    3.556691981501678
H    -6.560266832015474    0.29256852343122663    3.3907160068099613
C    -6.378311284628396    2.141607904985357    5.302155894699527
O    -6.246724779867153    3.1790255938056076    4.652686472257201
N    -5.509848104280029    1.7876247427384317    6.243807966977217
H    -5.658209944773667    0.9272174888622886    6.751536360670788
C    -4.348443844097018    2.6092846106743135    6.562836501519726
H    -4.611263903863292    3.2523357013089758    7.402783470689818
H    -3.5264901666505617    1.9432464752162724    6.825296697069115
C    -3.940033033159943    3.4722861092713915    5.373696466482255
O    -4.6993080953084085    4.309875156166921    4.88655483561903
N    -2.717769048300789    3.268669280249902    4.8932259280977926
H    -2.1294134240548064    2.570465100024129    5.325022850427465
C    -2.2042779710742657    4.027182347635813    3.7588763901375475
H    -2.3226246976116927    5.094370863970806    3.9465002769979165
C    -0.44693269586614004    3.0535825946400084    2.204385873586276
O    -1.4166488295058113    2.9891221848354497    1.4060324346122928
O    0.7172543602532868    2.6363169853465966    2.027558399499862
C    -0.714225833324586    3.7451688286999127    3.556112976462893
H    -0.3265483856778186    3.1289574968061373    4.369457756353044
H    -0.16797729802003333    4.6909312528885    3.5762011215948846
C    -2.9963672220892748    3.6324785451268675    2.5169309296959623
O    -3.482550017152907    2.509251662065578    2.385216621617705
N    -3.131911811482689    4.570122270247441    1.5848939620663594
H    -3.6458563410269726    4.370444541594665    0.7386730540100923
H    -2.7209770902810306    5.482381008961751    1.7227948270030637
