34
fragments fixed, E = -27825.632291 eV
N    -9.894855513362463    -0.015203375261296692    3.2052487650603054
H    -10.565650339535377    -0.6873189412577221    3.5615061383708997
H    -10.079415530118322    0.8808851550769874    3.639105919281728
C    -8.565976333125901    -0.4762609701277732    3.5502315188284133
H    -8.250899242535684    -1.1895023775784306    2.7744685531586675
O    -7.900135667618918    1.7784729039592027    2.7930617553053936
H    -7.805432272568267    1.4839071026444497    1.879391664058572
C    -7.553193317954909    0.6881846930605845    3.6264527827336455
H    -7.548885754773642    1.0449217602338174    4.655058285745772
H    -6.560266832015474    0.29256852343122663    3.3907160068099613
C    -8.549757878227053    -1.2880211244775572    4.847293442025053
O    -9.544917048495202    -1.8282416389239928    5.28815153417262
N    -7.325397449712664    -1.4081167220781279    5.454088044597685
H    -6.53210376605832    -0.9795884072119929    5.005276826008046
C    -7.025128766269704    -2.5390349765309725    6.302519311279725
H    -6.3421334531473965    -2.2553087952257087    7.102588381521246
H    -7.953891773694118    -2.8865235031697987    6.750950326611378
C    -6.393568443325675    -3.714282024068767    5.5557209955576425
O    -6.0039391005055895    -4.691123329301094    6.17168129920855
N    -6.318051665031333    -3.5598330335872728    4.217536461504742
H    -6.815547020857434    -2.7934039985208696    3.798462750824212
C    -5.8946604839425145    -4.604393676999601    3.3145613329048698
H    -5.684281138831723    -5.466467992352293    3.9527247314576672
O    -6.625113390067254    -3.7589224174388995    0.3990322761737076
C    -7.466687201907631    -3.964734057500037    1.3085619679436657
C    -7.065232055557264    -4.989546192930536    2.3876086939972567
H    -7.888143088824324    -5.16219107999311    3.079819834415865
H    -6.7670412926101475    -5.9287631090012125    1.9192927429427546
O    -8.586640768263367    -3.4191619904955295    1.4466443706786605
C    -4.514864316482844    -4.259050582371345    2.7259607695754653
O    -3.6589813933174518    -3.768017679070946    3.4410281226485426
N    -4.309022124068402    -4.640984585203649    1.4402751276806574
H    -3.4137056582200627    -4.348144339174355    1.0774288842720519
H    -5.129346253142516    -4.50869446356912    0.8236855838772662
