34
fragments fixed, E = -27825.432757 eV
N    -8.82713411209288    1.8552404425634712    5.333422631472227
H    -8.701105865711371    2.4211781373708714    6.165333749877213
H    -8.981617358868787    2.501218228303885    4.566598398930459
C    -7.590312811769309    1.1435392928063963    5.082344069003573
H    -7.5959742546745    0.21870394963211914    5.67684321753398
O    -7.900135667618918    1.7784729039592027    2.7930617553053936
H    -7.805432272568267    1.4839071026444497    1.879391664058572
C    -7.553193317954909    0.6881846930605845    3.6264527827336455
H    -8.277205914397967    -0.1307348918169545    3.556691981501678
H    -6.560266832015474    0.29256852343122663    3.3907160068099613
C    -6.355143227203983    1.8854234254615894    5.6318097275333985
O    -6.49049496041741    2.788435753133883    6.435845147359305
N    -5.12931542399574    1.3776517333970864    5.314957611815336
H    -5.07973753255665    0.598825617562717    4.683153305326743
C    -3.972415787800649    1.6529074953300749    6.146867736822059
H    -4.324365648771578    2.0565765563398783    7.094258941411525
H    -3.4462464760932185    0.7189910309290445    6.350762720320474
C    -2.930042828410223    2.6416770811261614    5.633140299138519
O    -2.082125166057973    3.0496952010301173    6.414077593956857
N    -2.9883152754825346    2.9784068987800634    4.3365028364010785
H    -3.825868230760333    2.775272911602565    3.805101387305626
C    -2.191758718765665    4.07709597200183    3.8214283560416002
H    -2.2231940301252413    4.874277269038651    4.574215274996697
C    -0.44693269586614004    3.0535825946400084    2.204385873586276
O    -1.4166488295058113    2.9891221848354497    1.4060324346122928
O    0.7172543602532868    2.6363169853465966    2.027558399499862
C    -0.714225833324586    3.7451688286999127    3.556112976462893
H    -0.3265483856778186    3.1289574968061373    4.369457756353044
H    -0.16797729802003333    4.6909312528885    3.5762011215948846
C    -2.9438782993278716    4.6136571038784275    2.602138822697702
O    -4.078361669863269    4.256087493646689    2.3374121496069815
N    -2.343143025232034    5.660614184378406    1.9483446710878443
H    -2.7606008390433905    5.8200181573358005    1.0433217985702985
H    -1.3370166984992753    5.60860319468748    1.9056444680717288
