34
free relaxation, E = -27826.486026 eV
N    -8.173046500326985    1.2085398368747282    4.444036276608216
H    -8.460652497238708    1.0182342485620368    5.396985905368094
H    -8.390996627740597    2.191413010497895    4.3010919643140975
C    -6.728782485412465    1.0841847939758447    4.349381164239561
H    -6.449837816786083    0.039862208236469854    4.170516398008367
O    -6.585813353433757    3.2633695649383037    3.2447524792432225
H    -5.869915903406028    3.7410926513703338    3.686618947185867
C    -6.256297282636275    1.888543769872543    3.130678139205462
H    -6.809095332796442    1.5084013113601213    2.2693912100341707
H    -5.191052572195206    1.733008862738686    2.9395699234955392
C    -6.0121837447333455    1.5525798575929617    5.618661899839831
O    -6.583759756311535    2.1936668828165424    6.483884081341842
N    -4.695732217293492    1.2096237472535574    5.7103375391843425
H    -4.241874943770733    0.8027737968654177    4.897421974109972
C    -3.8392333068126123    1.9337980647320572    6.623426919386732
H    -4.398181295489291    2.188471284716136    7.52071239046124
H    -2.9943226145321518    1.307072727952065    6.909965643606019
C    -3.2379157940264083    3.2204608301211435    6.052459946534232
O    -2.521313558052207    3.926083290382123    6.738584051547712
N    -3.5434895053420123    3.4476607261098353    4.745432558619007
H    -3.7992024852475574    2.5817427819863945    4.275933450294002
C    -2.5972568003536147    4.166469732803544    3.9041933684871815
H    -2.136604937161657    4.945629090260402    4.513618105519306
C    -2.1518505684695004    1.9879799595100784    2.6307333109864066
O    -2.893104640547625    1.2019997276182215    3.2876364757682386
O    -1.9130432242234143    1.9505620359530218    1.4083661957468
C    -1.531934734694396    3.17244052164524    3.417385823293118
H    -1.0282749388915127    2.7883967342545466    4.3061450819777365
H    -0.7949372278126787    3.6788673180413753    2.79425826609819
C    -3.3869943280945938    4.888140953781112    2.8010908891415642
O    -4.275610969647739    5.671537530305162    3.092591954327675
N    -3.0210365392419156    4.631822799072608    1.521980540694645
H    -3.6317051273235816    5.021840719077166    0.8223264622710104
H    -2.504426701570562    3.78430401881454    1.2794247257481475
