48
condensed pair, closure 0.229 A, charge 0
N    -5.267434485082746    0.2981720942539783    4.434106147773683
H    -4.356936490199066    -0.0713226543715148    4.200510274413339
H    -5.184318337177134    1.2790374172935897    4.66014801118781
C    -6.165215658479038    0.1351665059654541    3.296924481160169
H    -6.271719541526218    -0.9237780954202481    3.061566765986119
O    -7.900135667618918    1.7784729039592027    2.7930617553053936
H    -7.805432272568267    1.4839071026444497    1.879391664058572
C    -7.553193317954909    0.6881846930605845    3.6264527827336455
H    -7.548885754773642    1.0449217602338174    4.655058285745772
H    -8.277205914397967    -0.1307348918169545    3.556691981501678
C    -5.56747463780651    0.8699797628459093    2.1017758921897007
O    -4.730065905660526    0.34512508664845676    1.3678581963958711
N    -6.002053708761042    2.1092183470876713    1.897644164095391
H    -6.690186212488748    2.498987475454763    2.5258588438708607
C    -5.511085182204662    2.9206065053109915    0.7902313401557259
H    -6.130180546935007    3.8155649853433267    0.728020019742056
H    -4.472695730070743    3.179671618984119    0.9969500199467679
C    -5.58932468732266    2.158913852257718    -0.5286044654408448
O    -6.661049294560328    1.9522587731792205    -1.0978680639014562
N    -4.434654962649024    1.7309139179901292    -1.028399306539719
H    -3.5796798540425665    1.9237186156988095    -0.526459158509258
C    -4.37026995575756    0.990226070579043    -2.282592307471042
H    -3.768254172538815    0.09700802034499123    -2.11574353914595
H    -5.387791035877729    0.7253002605117265    -2.5699338580189197
C    -3.735239916454837    1.8291145640425943    -3.3865071342206585
O    -4.248202929978906    2.8744644003891766    -3.785848675268519
N    -2.5965285145447643    1.3674257294816277    -3.892887192281532
H    -2.2625390082822734    0.478285989848087    -3.549402792183162
C    -1.8680692640343208    1.9758605679347065    -4.806794749786647
H    -2.449511126613716    2.882823162750173    -4.9724576968985446
C    0.11718673698656328    2.1233506421937913    -3.277779586550964
H    1.1880234456274477    2.3528818093712354    -3.2308419369219066
C    -0.3949056244520471    2.3729237339291336    -4.692646892937776
C    -0.6200103389001146    2.9365361508530987    -2.2141985473546217
H    -0.3129984923677483    3.423461888302468    -4.97580505211825
H    0.1669466126745568    1.7930200438043526    -5.425894007447757
H    -1.6978622497670008    2.7847848307585132    -2.3346578687296202
H    -0.3660246962101882    2.5401154898383416    -1.2285348713186992
C    -0.2918560488108491    4.424935990755709    -2.2507577294391936
H    -0.4998928069864356    4.863370320126258    -3.2273920105781038
H    -0.8695426628321822    4.981017188310926    -1.511272865134914
H    0.7673911580791741    4.585112796283513    -2.0350606860968
H    0.01940777409248233    1.0592795929609615    -3.042916990869558
C    -2.0730966721622037    1.0135951301622963    -5.971970268403921
O    -2.269339069508874    -0.18882615045664752    -5.795808452455256
N    -2.0278575568723944    1.5469848182261599    -7.188395302310627
H    -2.156380063048467    0.961806247833698    -8.001505384746983
H    -1.8649546846747214    2.5375234976814522    -7.299731633904199
