48
free relaxation, E = -31572.201618 eV
N    -5.723551920217291    -0.45297121590526424    3.83972364892579
H    -4.887692465047818    -0.9882568836741744    3.6455607862603236
H    -5.657621215604168    -0.12037369168260256    4.795392094527576
C    -5.888523140404704    0.6449992824154566    2.917671629018443
H    -5.7800903580993515    0.27909730947966405    1.89469088897919
O    -7.480613291699075    2.446079998574429    2.3812305070421487
H    -7.312512358129242    2.2965481488579242    1.4374874509190159
C    -7.29152420811054    1.2430316848789598    3.084614374499573
H    -7.4531725362328896    1.4639998544884305    4.142672129024828
H    -8.011222638431962    0.4715998388262764    2.7947838401483613
C    -4.867072385469564    1.804619671996902    3.0628769667360296
O    -4.13333463857863    1.9811203852192327    3.9650100836993714
N    -7.033375184596012    5.129256188512595    3.9213922461064983
H    -7.5610232509768975    4.335172843757386    3.553611748715696
C    -5.95161537713808    5.239928716898428    3.2807523543630634
H    -5.65590844128046    4.571170454569411    2.4665228577923544
H    -5.25745774219089    6.038469510136288    3.541910889129567
C    -6.106796800372542    2.989561220771031    -0.6974706937317882
O    -6.601815050424756    1.9760644603751327    -0.27698758682405883
N    -5.315033408187549    3.1806423973947457    -1.7369058882836468
H    -4.979678754933515    4.104328609955694    -1.9729206911835855
C    -4.8561647398930265    2.0850565914882435    -2.5713075756658172
H    -4.491238762866913    1.2674083802670826    -1.9473300904102975
H    -5.676259177602076    1.6960914479930487    -3.179984079162101
C    -3.7695678662060166    2.6005923548438847    -3.5024612281117253
O    -3.600605555758583    3.797073134573505    -3.6754597930605413
N    -3.0565591935633707    1.6341782250139112    -4.0999591221144565
H    -3.243841748159353    0.654160660389638    -3.927226337780888
C    -2.051655718662787    1.8661667380391729    -5.112755986053447
H    -2.5043361798400263    2.381959743079088    -5.966627559908269
C    -0.12914793328728671    2.0929261145534652    -3.4138208609984093
H    0.9441777813752312    2.2778611700975224    -3.5155805962770605
C    -0.8560984898188756    2.693766512538315    -4.62337625760706
C    -0.5803325669508035    2.6549207612548136    -2.0633245386331773
H    -1.221852001381804    3.693930588639773    -4.3975386431898915
H    -0.16683565743065631    2.816365830366972    -5.462770105364399
H    -1.6501731897234748    2.4836727147573012    -1.9254454581742515
H    -0.08300799026396675    2.089705858572323    -1.271938056002294
C    -0.2740543678990251    4.139496786067998    -1.8954108689616214
H    -0.8472770437408839    4.752601004604144    -2.5918051312565726
H    -0.5211358932583648    4.478154864569052    -0.8887129193692318
H    0.7854394336085839    4.34454995125151    -2.0688783584275234
H    -0.2491600536170562    1.004258598199572    -3.4146793187141293
C    -1.635067196736966    0.4689385273219885    -5.584276239013464
O    -2.0958116841500054    -0.5386703006918064    -5.077903436382325
N    -0.7424654997637928    0.42786132174713093    -6.5953834885806755
H    -0.43931226925322453    -0.4734526082849739    -6.922168990683588
H    -0.336335394367496    1.2581894116807786    -6.985907095217943
