49
free relaxation, E = -34655.922385 eV
N    -6.667574819058482    2.659405336255869    5.306334746795019
H    -5.713550760794362    2.4457268917273054    5.028037985589018
H    -7.006651555641445    3.3745348638728014    4.673752005832887
C    -7.507781562282881    1.4696267740196283    5.200581071718015
H    -8.524793512218213    1.7580531710482588    5.47917697877138
O    -8.078091482896841    1.794639037138947    2.9343915491620227
H    -7.98787414374314    1.4675466315783197    2.0356450047862134
C    -7.553060839921165    0.8222672627350512    3.8278907784893743
H    -8.191149766502122    -0.07031069044840507    3.860718889302237
H    -6.542390116749203    0.5113670025969695    3.549061876437689
C    -6.942167138886897    0.4922951517012317    6.211349112716888
O    -5.919546070483249    -0.13589303729534885    5.98367193268753
N    -7.562875326792097    0.4376870308360105    7.413169557552554
H    -8.369013759423293    1.0157290336790055    7.575648789754289
C    -6.9717973598477325    -0.3121221226514346    8.499731992679768
H    -7.639034583416042    -0.27451352410036983    9.360555743232444
H    -6.840126369758799    -1.3573472111606089    8.221822131220954
C    -5.596928811085921    0.17399346395135926    8.952798934604061
O    -4.9240327366693375    -0.5369873131201308    9.671954248174618
N    -5.2154755409757865    1.4092135608491838    8.539421648336946
H    -5.8216094709650035    1.9442876562810072    7.936470300638014
C    -3.9250298281651346    1.9470831050679935    8.890268942335926
H    -4.0169616575806275    2.9691969201298494    9.258813915948402
H    -3.517031496783935    1.3340689707002569    9.692113696393884
C    -2.8868027246350603    1.9938780825415754    7.784489850312681
O    -1.8013049300648638    2.5095975003323963    8.006485829771515
N    -3.1994292303553915    1.4929021949543824    6.57060382457332
H    -4.034388173086891    0.9373157955848469    6.428004040123479
C    -2.1832411228335875    1.5767713395964593    5.541787721516155
H    -1.2836992220518815    1.052072959923054    5.877860607450717
C    -4.239595438202626    -3.0035821529831646    4.19988352358641
C    -4.563818156977253    -2.104699549773255    3.1929839021182023
C    -4.0473918599097525    -0.8202985927788821    3.216281215170029
C    -3.2013836292728692    -0.405543109394594    4.241841419601314
C    -2.879549576170863    -1.3149407910125495    5.241313443367002
C    -3.3942794112068952    -2.6042258564483296    5.221561030628987
H    -4.647011186990794    -4.00598529910112    4.184490576949597
H    -5.229662391621593    -2.4050418938635527    2.393857721190914
H    -4.30208784567103    -0.12190318201338832    2.425463463001336
H    -2.2300926317269116    -1.0210152460380966    6.055969852589537
H    -3.1329893109684415    -3.29360900804291    6.013335882218762
C    -2.6659495341946733    1.0068458252601522    4.214161609125481
H    -1.8230946096202538    1.0672575240159137    3.5189540204117913
H    -3.4282021843062522    1.6817489588881585    3.816735678482783
C    -1.828856876472561    3.051677193468999    5.287886596601574
O    -2.6807786883008853    3.852806636795656    4.966157441098867
N    -0.4986159963603383    3.337552485696984    5.331921879267165
H    -0.26368698983360866    4.314970068878821    5.262173782084102
H    0.058269246704995926    2.799963375987875    5.9758778746481935
