41
condensed pair, closure 0.000 A, charge -1
N    -9.915296502061858    0.06918862148520177    3.368732705231833
H    -10.585654977403376    -0.639232588787757    3.6311425056837066
H    -10.034256165431664    0.8798294601175481    3.959334118396743
C    -8.564546898257493    -0.4557418880716856    3.529005809521659
H    -8.301880010116752    -1.064791932529229    2.664040984097686
O    -7.900135667618918    1.7784729039592027    2.7930617553053936
H    -7.805432272568267    1.4839071026444497    1.879391664058572
C    -7.553193317954909    0.6881846930605845    3.6264527827336455
H    -7.548885754773642    1.0449217602338174    4.655058285745772
H    -6.560266832015474    0.29256852343122663    3.3907160068099613
C    -8.52650510806629    -1.311184521773189    4.790907439065295
O    -8.424151385587102    -2.536985587058444    4.742986005028044
N    -8.61013972515003    -0.6580247088028349    5.945302739448048
H    -8.69293723005416    0.3485343674953346    5.936170428490465
C    -8.585453103707616    -1.3570035264691518    7.224592848522435
H    -7.867012432651509    -0.8521901906603887    7.870430675040888
H    -9.58785315715229    -1.3151733883650265    7.650673090261366
C    -8.171014164086841    -2.8140665991873455    7.049000800163108
O    -8.97583269197476    -3.738035640082579    7.166938701770112
N    -6.891531049489142    -3.0295989811422412    6.761407768626842
H    -6.267192846760574    -2.2404858826884717    6.674216447600302
C    -6.36586972642897    -4.375792730574496    6.5685177418546985
H    -5.294362075168715    -4.350612826693589    6.766854137232047
H    -6.875173118770499    -5.039574320831878    7.267162182886609
C    -6.605006948379288    -4.862207790700778    5.143091918333801
O    -5.689791841985018    -5.289492210798285    4.439408514117344
N    -7.857683045450532    -4.798568750859519    4.70378147179919
H    -8.576350448310325    -4.440661667837296    5.316578080788897
C    -8.22127883603618    -5.2320822117544115    3.3600448723233187
H    -9.081367993005022    -4.661368757072605    3.0098552169795547
O    -6.625113390067254    -3.7589224174388995    0.3990322761737076
C    -7.466687201907631    -3.964734057500037    1.3085619679436657
C    -7.065232055557264    -4.989546192930536    2.3876086939972567
H    -6.7670412926101475    -5.9287631090012125    1.9192927429427546
H    -6.201898342312742    -4.608512976175139    2.936128811623874
O    -8.586640768263367    -3.4191619904955295    1.4466443706786605
C    -8.574198715065558    -6.7148093923945025    3.410963108516022
O    -8.360250055290983    -7.400455352325562    4.410701368567562
N    -9.125878276781076    -7.224637551659373    2.314621050029727
H    -9.382446797891156    -8.201075995864363    2.2856286604434013
H    -9.2885696182238    -6.635653163780582    1.5104264726701095
