41
free relaxation, E = -33487.262843 eV
N    -9.139437810004702    -1.1455120605998885    2.5361884714446266
H    -8.821633717260498    -1.8176710948462695    1.8427905752939162
H    -9.956747133070255    -1.5211997843684473    3.003457269393557
C    -8.091330076466832    -0.8562459172025813    3.4935783072144293
H    -7.165804432032449    -1.3170860112729135    3.132365928969223
O    -7.794941502372036    1.2032010542631402    2.2690338580270923
H    -8.412032070379238    0.6655993313601304    1.7438061806577785
C    -7.898188048356361    0.6713399485138842    3.563156330183977
H    -8.749000074898998    1.1125316766992017    4.103543808236447
H    -6.980195444119102    0.940198100220079    4.0929435314902864
C    -8.404539058733564    -1.4008944479015593    4.8781709149755965
O    -9.382722378711799    -2.0857972291639064    5.130351353922841
N    -7.5215763585784545    -1.0667621266529215    5.867273034439456
H    -6.775256176786898    -0.4309552475390804    5.649873931725632
C    -7.82758979407331    -1.3477733940575654    7.254319118549389
H    -7.184383889250828    -0.7338700640076835    7.883517200919152
H    -8.864313186632339    -1.1005370095533074    7.478174611559347
C    -7.653254733981841    -2.8040113170398318    7.684616175145315
O    -8.195654853299251    -3.2149963160388393    8.693551340008412
N    -6.854362533168394    -3.5407533961310853    6.882660668991416
H    -6.567693316384371    -3.0953754013113968    6.024198762705459
C    -6.8211147828955045    -4.993172689405611    6.891775600811836
H    -5.84610448798522    -5.377683899783846    7.1871909105294325
H    -7.570867017766828    -5.344691068608281    7.60118440783242
C    -7.09772720108757    -5.5254296929071804    5.480227431073796
O    -6.378598117283355    -6.3657090634456095    4.972903192494626
N    -8.128417637174389    -4.91207654960513    4.867998650175959
H    -8.672357583690841    -4.2468966384865565    5.393715349607678
C    -8.432319356617377    -5.008320585758632    3.4564818939458077
H    -9.147650808547802    -4.2024794876633536    3.2704769120562265
O    -6.807762192365519    -2.7150739298964193    1.3791153735618198
C    -7.534032289192474    -3.7254731346522783    1.4607858900467368
C    -7.19956342036996    -4.740906649257971    2.5640346671672916
H    -6.840054992698733    -5.6704766156906175    2.1221121042738256
H    -6.394648273232399    -4.3393393079377995    3.175236652209373
O    -8.564411934668623    -3.9707178334485254    0.7738567191407187
C    -9.177533076452908    -6.30423435101268    3.106771143718572
O    -9.457235004176775    -7.155795636306093    3.9331242807472053
N    -9.510036624764691    -6.352875077304144    1.8015579506142925
H    -10.03063104602591    -7.148104670149494    1.47722736761312
H    -9.262941227695489    -5.550633909834902    1.200149905931604
