75
condensed pair, closure 0.114 A, charge 0
N    -9.700640336315745    1.728987315467546    -4.7340138713339694
H    -9.306725964432797    2.589048574214484    -4.380140873174043
H    -9.844342105212219    1.8099915979104202    -5.73045158029622
C    -8.78588560073754    0.6266610646126288    -4.46223342609666
H    -8.64268771283043    0.5245816112066484    -3.386513132483455
C    -6.994373722257473    -2.5191921642887256    -3.5937232463782682
C    -8.37184505994573    -2.476730749046014    -3.344622206216911
C    -8.910973837441631    -3.2969834746319884    -2.3339956760445886
C    -8.118467764206757    -4.155363751715846    -1.5735000971013178
C    -6.765374608251059    -4.178585971783629    -1.8428578119198242
C    -6.205416624011167    -3.3672456693821795    -2.8446132645736215
H    -6.554845161815094    -1.8904613027804231    -4.358902963224503
H    -8.544098673887293    -4.777273021652271    -0.796309283136288
H    -6.121177528088399    -4.830823390421954    -1.2670248619321225
H    -5.13631686569991    -3.3986015255956894    -3.0160606862183617
C    -9.458045311591022    -1.713723453842197    -3.905159915563329
C    -10.57521537314892    -2.097384825608114    -3.230883166321958
H    -11.592033846049752    -1.7600081202478195    -3.351760566178255
N    -10.259204039629685    -3.0432578712161713    -2.2759824885751434
H    -10.916910487252787    -3.4977975000290193    -1.670778720641096
C    -9.361056164220514    -0.6893702967538683    -4.989623489334983
H    -8.71460838837216    -1.028269476204355    -5.801520769600676
H    -10.34087230590113    -0.4732601319961192    -5.415154867606811
C    -7.450391693644318    0.932308573292719    -5.1320547638834855
O    -7.383416580069954    1.359558439708482    -6.284588011043589
N    -6.362961182639952    0.711174483728579    -4.400730213379796
H    -6.466193443813893    0.36006070204105944    -3.4593683209271617
C    -5.024801775391108    0.9623520577396081    -4.9222694996328595
H    -4.780860684897125    0.1635953718577522    -5.62268402056146
H    -5.03499903399135    1.9299211436639152    -5.424072329318625
C    -3.9912442738201377    0.9849993624987    -3.801166921572528
O    -4.317637857975763    0.9510795920891664    -2.6147109900700514
N    -2.718104449574593    1.0434388882978851    -4.177917249700308
H    -2.497298170266788    1.0695582649361757    -5.163139237468685
C    -1.6319096304107172    1.0708188346604104    -3.205705774064096
H    -1.5316045192657062    2.0932391978581633    -2.8414318584500857
H    -1.890160416642508    0.39199823519619137    -2.3929271294420187
C    -0.31611427948692006    0.6272700862064986    -3.836238962906912
O    -0.2812607774970366    -0.006591701071843481    -4.890926342193944
N    0.7908006551597029    0.963973874884261    -3.182319330118368
H    0.7138431304491508    1.4845105083523125    -2.320217739464359
C    2.113385226935189    0.6013221367622823    -3.6773120243458295
H    2.3058636716563874    -0.43415269872398277    -3.396520440796035
H    2.110531370860312    0.7162101033040866    -4.76123665763423
C    3.1916925132720735    1.4969467931646578    -3.0766999439837113
O    2.952993359776106    2.6489088319207825    -2.7142538440113957
N    4.4037700401888165    0.9630560394785707    -2.9668376125325038
H    4.553182232910999    0.013696807367239883    -3.2774709093165635
C    5.523378008996826    1.7124398942925012    -2.4094635600992946
H    6.101576496927394    2.120520219142903    -3.2384731843044636
H    5.118145878595822    2.510822498399634    -1.7877947270782264
C    6.419131421326425    0.8160804574206408    -1.561058831075087
O    6.297681670019516    -0.40890942273595576    -1.557779895056021
N    7.338334444802834    1.4326567084240287    -0.8254362863346243
H    7.379648693975877    2.4404714135296066    -0.8774233326848879
C    8.282556139983038    0.7689903295327046    0.04275991086523856
H    8.82657482124975    0.07079858692205365    -0.5933784113439569
C    9.307427260299047    1.6196649371194556    0.795682150375625
H    10.251452468690445    1.0714002149550037    0.805253267307025
C    8.816917055899216    1.9113853070008846    2.2104068155164045
H    9.58146133063538    2.5045613128865694    2.724699128733303
C    7.525899663787565    2.724841407498607    2.1788325602280625
C    8.620012201818108    0.6151640369877205    2.9915807733439923
H    6.7495257128654504    2.1786343007918925    1.6377279611911146
H    7.151974948106173    2.922069272243191    3.1849894657877273
H    7.664094146681981    3.686499830036142    1.681518260599493
H    9.526465326007312    0.005994932638091648    2.985272402733273
H    8.355902325576114    0.8172450957798114    4.031320049731619
H    7.814593007337242    0.020740080272548138    2.548926612450783
H    9.459930366236106    2.540770079992641    0.2306050171018046
C    7.406617332633902    -0.0039081718522495645    1.0230578820641316
O    6.371249077198689    0.4740236526589128    1.4866900064434434
N    7.824628599184046    -1.2227974466938398    1.3483523897234018
H    7.288156969132889    -1.7852862902269835    1.9932589651674744
H    8.678776210586328    -1.58662776613286    0.9506598494455163
