66
condensed pair, closure 0.118 A, charge 1
N    -8.772870904843204    1.6361427284376076    -5.514156136228887
H    -8.390931424858097    2.497402349466453    -5.150213697354336
H    -8.202966802381331    1.3142006322603987    -6.283352210520839
C    -8.78588560073754    0.6266610646126288    -4.46223342609666
H    -9.414905224731898    0.9628475775878922    -3.6379683345614606
C    -6.994373722257473    -2.5191921642887256    -3.5937232463782682
C    -8.37184505994573    -2.476730749046014    -3.344622206216911
C    -8.910973837441631    -3.2969834746319884    -2.3339956760445886
C    -8.118467764206757    -4.155363751715846    -1.5735000971013178
C    -6.765374608251059    -4.178585971783629    -1.8428578119198242
C    -6.205416624011167    -3.3672456693821795    -2.8446132645736215
H    -6.554845161815094    -1.8904613027804231    -4.358902963224503
H    -8.544098673887293    -4.777273021652271    -0.796309283136288
H    -6.121177528088399    -4.830823390421954    -1.2670248619321225
H    -5.13631686569991    -3.3986015255956894    -3.0160606862183617
C    -9.458045311591022    -1.713723453842197    -3.905159915563329
C    -10.57521537314892    -2.097384825608114    -3.230883166321958
H    -11.592033846049752    -1.7600081202478195    -3.351760566178255
N    -10.259204039629685    -3.0432578712161713    -2.2759824885751434
H    -10.916910487252787    -3.4977975000290193    -1.670778720641096
C    -9.361056164220514    -0.6893702967538683    -4.989623489334983
H    -8.71460838837216    -1.028269476204355    -5.801520769600676
H    -10.34087230590113    -0.4732601319961192    -5.415154867606811
C    -7.356739721156735    0.4255233477845378    -3.969576675664484
O    -6.418686361604732    1.093624995151484    -4.404383625262547
N    -7.181606901136602    -0.512077026071811    -3.044117311728805
H    -7.980872473442751    -1.03570556509706    -2.7168747441364953
C    -5.865456552026945    -0.8042999888729063    -2.489033535574
H    -5.36623534483065    -1.505887573582597    -3.1573546015794767
H    -5.311655638122324    0.13230030446036223    -2.424346301234893
C    -5.977831815370195    -1.4223392621702162    -1.0994205474184235
O    -7.0673283654647605    -1.6201734363968465    -0.5616288527632289
N    -4.832632516567683    -1.7352135905295334    -0.5020352273142683
H    -3.9622506399320034    -1.5547984440746525    -0.9816035371032041
C    -4.800303936860219    -2.3321775152776207    0.8277590934299051
H    -5.6634485401728805    -1.964913416540965    1.3829153557123197
H    -4.844471433275899    -3.4151118557026443    0.7119901572311521
C    -3.523187799227509    -1.954712106493652    1.570806357182125
O    -2.410588022319385    -2.087501064336594    1.061051681775437
N    -3.679705188629813    -1.4742461319948321    2.799991353089408
H    -4.614334297304753    -1.382732373456839    3.1717354333593395
C    -2.461033213839328    -1.0429202409568479    3.6967288625886328
H    -2.606422489860292    -1.332105882713474    4.737562001482619
N    0.9892702400423287    -4.502009175815592    -0.753909654643119
H    1.0975226001957368    -3.4820698028847126    -0.6823719434061016
H    1.605062693661922    -4.977629742201972    -1.39165631947001
C    -0.12826210335370025    -5.099966347289514    -0.3683003229674298
N    -0.4930403134764921    -6.265257619443223    -0.9223567674686219
H    -1.1919276696540382    -6.8467519530962475    -0.4946810801023922
H    -0.0754489688467595    -6.585157659285854    -1.7781038261894984
N    -0.9008086350193714    -4.563496668155164    0.5727012666143685
H    -1.7952962975561122    -5.000073628691646    0.7346858267255573
C    -0.46604010685584835    -3.565813026266058    1.5614591423407462
H    0.16855101619115695    -4.052827401623433    2.3063413647335502
H    0.12873064933239586    -2.8068632565168463    1.05905171573867
C    -1.6703348647425063    -2.9117518104059577    2.21866963810215
H    -2.247320411826122    -3.665987605451234    2.763302794154241
H    -2.3220749856309424    -2.5022912972641467    1.4432774634220285
C    -1.2408012741030352    -1.795854200236265    3.1628520357725365
H    -0.685012476363151    -2.181656841569932    4.018129887649265
H    -0.6089992889592396    -1.0736154882131534    2.6417394024488448
C    -2.240239920052172    0.46337514383357536    3.607568696720177
O    -2.9536266071656967    1.1852951655532022    2.9109540852673854
N    -1.2338392982427968    0.9523531757991621    4.324715315395022
H    -1.0362064692586161    1.942686994446721    4.307976362301923
H    -0.6666379451145102    0.3336279442736817    4.886464114132663
