75
free relaxation, E = -50719.669659 eV
N    -8.736846758629255    1.438583592149419    -6.342144878673135
H    -8.147559918503132    2.2504879631131494    -6.483808604435921
H    -8.645491695244894    0.8754184169576678    -7.182899674367481
C    -8.245985757622272    0.6556568557821527    -5.218423999891985
H    -8.159961838010965    1.3093897562791628    -4.345475484475432
C    -7.293458218380069    -3.097418455343401    -4.485168900060917
C    -8.067876301586212    -2.382447792341652    -3.5622499995337047
C    -8.063848578643064    -2.7812182054365815    -2.212540653335563
C    -7.31624693806684    -3.8666625947092714    -1.7583529143927137
C    -6.564157403110195    -4.551427754609834    -2.687745733959389
C    -6.54838112750219    -4.169099995527965    -4.040282962641848
H    -7.269605696023195    -2.8042744649522997    -5.527236052320285
H    -7.324745335680348    -4.162308783486419    -0.7168902537694595
H    -5.975434896026603    -5.401669907222853    -2.370327434102658
H    -5.9461023560973745    -4.731390859469562    -4.742743765415699
C    -8.944647195117618    -1.2420943307432326    -3.6695337415210174
C    -9.41761937610623    -1.0104716198869603    -2.4135770878130893
H    -10.111001302567406    -0.2555871201225961    -2.0753980538918353
N    -8.895089194580864    -1.9284625752767044    -1.5283341877392207
H    -9.069773714220439    -1.950368426204677    -0.5413969696094999
C    -9.265018969654829    -0.44962184321576    -4.898289087154025
H    -9.330020072266468    -1.108835847358414    -5.769223275354666
H    -10.234051432974177    0.03907823705881719    -4.793788822113357
C    -6.891961107850429    0.01406585956114229    -5.516375307644886
O    -6.666653988927234    -0.5036815965031388    -6.6024904664989945
N    -5.993997354961869    0.03514178981838617    -4.514085140269505
H    -6.20315935447369    0.47393005570651064    -3.6304125555112794
C    -4.7158610659339955    -0.6134248064412703    -4.616192276991529
H    -4.795751027732345    -1.6855240582208382    -4.401149113959588
H    -4.336651222014034    -0.5141379915781118    -5.6337559444629814
C    -3.7628644930402584    0.014170191826905959    -3.614796048105503
O    -4.155238595769733    0.7280062786589281    -2.7042603809727814
N    -2.463906800218989    -0.28795327704571155    -3.7977741427918623
H    -2.144953514327991    -0.8710123464680519    -4.558597000979329
C    -1.437786242953141    0.25872583816342765    -2.9511748101451922
H    -1.5775347670059041    1.3342739995074457    -2.829237380465839
H    -1.4704233523603638    -0.18003043615164238    -1.9491451896354017
C    -0.08806428614910236    -0.047066083113287374    -3.581191044268506
O    0.029706087190161955    -0.8747254740676149    -4.471715322182257
N    0.9565900935265078    0.6338587937755927    -3.079030955495952
H    0.8530654940456752    1.366379783342116    -2.3905588985593855
C    2.2961652647555706    0.41365355715242197    -3.554222932748786
H    2.6257988480721046    -0.605686258331918    -3.3352388733757756
H    2.3581619864793772    0.5456532159604383    -4.637928008250357
C    3.214018723131168    1.4099854733156278    -2.8623917187475842
O    2.7797167854819493    2.2700207814405524    -2.114377462095623
N    4.524112249903096    1.2640814351321972    -3.1504130927717666
H    4.8455556193951566    0.4318551848444868    -3.6247986880916336
C    5.542932104883055    1.9613503321940484    -2.4056068786633102
H    5.956767443771357    2.801975947511677    -2.970643181884522
H    5.103927378379168    2.3623948391082985    -1.4921040951405047
C    6.66738888902803    0.9819107324610842    -2.1085734820010695
O    6.80089717198516    -0.040061979992667085    -2.7597193206116963
N    7.518974363354046    1.3449099675769203    -1.117585715135502
H    7.171515554696388    2.0146120746010436    -0.4510449713213226
C    8.453713727225905    0.3539658449936566    -0.6214795933895092
H    8.877314671281868    -0.12840428789763603    -1.5039329346279273
C    9.6137689192188    0.9797304084658957    0.17062512652860432
H    10.410774611744179    0.23204657145028257    0.2248546645250708
C    9.37650952099959    1.5121494972519465    1.5962413474361248
H    10.27085520097313    2.1038700212361015    1.8157632087034923
C    8.17166989958267    2.443924915398992    1.728277517344868
C    9.300718497970708    0.4048841824691169    2.6477929532286404
H    7.237304549379018    1.8892029399188266    1.6117976981604198
H    8.149291611701226    2.893557814633352    2.7219003112264097
H    8.202504369030157    3.264424948150445    1.006017776841567
H    10.14803457665909    -0.2797520806382342    2.569854211128454
H    9.310295386945638    0.8400071356854554    3.648910446982255
H    8.38130157158098    -0.1734111208181056    2.553739745656299
H    9.998784953043712    1.7896653232432966    -0.4546647143281347
C    7.683026046413966    -0.716840108485701    0.16176037952500086
O    6.611305054668626    -0.4842412589569916    0.682190130531868
N    8.311179491404324    -1.9145700369260352    0.2678483820624753
H    7.804524151191628    -2.6694658991929088    0.6996064585709908
H    9.07926330118546    -2.1494079436714504    -0.33477219054080876
