66
fragments fixed, E = -43883.144169 eV
N    -9.454877147954358    1.7455441507052054    -5.267870280840366
H    -9.136748249893731    2.655367212541118    -4.955159695037106
H    -9.199864520067354    1.6575308597128016    -6.246466423017573
C    -8.829765619548539    0.6690445039280357    -4.496112838153715
H    -9.113687625295999    0.8033509354368533    -3.4494615813399534
C    -6.994373722257473    -2.5191921642887256    -3.5937232463782682
C    -8.37184505994573    -2.476730749046014    -3.344622206216911
C    -8.910973837441631    -3.2969834746319884    -2.3339956760445886
C    -8.118467764206757    -4.155363751715846    -1.5735000971013178
C    -6.765374608251059    -4.178585971783629    -1.8428578119198242
C    -6.205416624011167    -3.3672456693821795    -2.8446132645736215
H    -6.554845161815094    -1.8904613027804231    -4.358902963224503
H    -8.544098673887293    -4.777273021652271    -0.796309283136288
H    -6.121177528088399    -4.830823390421954    -1.2670248619321225
H    -5.13631686569991    -3.3986015255956894    -3.0160606862183617
C    -9.458045311591022    -1.713723453842197    -3.905159915563329
C    -10.57521537314892    -2.097384825608114    -3.230883166321958
H    -11.592033846049752    -1.7600081202478195    -3.351760566178255
N    -10.259204039629685    -3.0432578712161713    -2.2759824885751434
H    -10.916910487252787    -3.4977975000290193    -1.670778720641096
C    -9.361056164220514    -0.6893702967538683    -4.989623489334983
H    -8.71460838837216    -1.028269476204355    -5.801520769600676
H    -10.34087230590113    -0.4732601319961192    -5.415154867606811
C    -7.314607537320441    0.7986901640677627    -4.643682700017493
O    -6.72425711973275    0.4598267626409109    -5.652523016235079
N    -6.659728829438881    1.4749738651706414    -3.6505025362388825
H    -7.112945971452383    1.6483240378754138    -2.768410112362051
C    -5.304887474614963    1.9042175800403505    -3.8683363152558936
H    -5.205872657988331    2.3571556812894467    -4.855465464680568
H    -5.013172427194855    2.6486182072050024    -3.1278915044611493
C    -4.237081756143968    0.8100578758496516    -3.818020055913674
O    -4.387462502125716    -0.31993169365985613    -3.523244954994538
N    -4.560863574560896    -4.6802438958558366    2.8933795520125054
H    -4.017840489522601    -0.6904799164973653    -1.4779927125005101
C    -5.239526533128073    -3.5756384466111464    3.452483728863522
H    -6.213329048290762    -3.4239838769608646    2.9590264949209315
H    -5.4279487238794175    -3.723847942073566    4.528717625534912
C    -4.393811187639489    -2.3276569618879845    3.1883234931784976
O    -4.392311534444432    -1.7773552124274357    2.1025876792854676
N    -3.5332995391936883    -1.962655187345875    4.169564577933441
H    -3.6111930560480916    -2.4155705333942015    5.063028238071448
C    -2.4147717780592908    -1.0790554161004196    3.9245870216688328
H    -2.017231908980894    -0.8505871716523056    4.91814534500503
N    0.9892702400423287    -4.502009175815592    -0.753909654643119
H    1.0975226001957368    -3.4820698028847126    -0.6823719434061016
H    1.605062693661922    -4.977629742201972    -1.39165631947001
C    -0.12826210335370025    -5.099966347289514    -0.3683003229674298
N    -0.4930403134764921    -6.265257619443223    -0.9223567674686219
H    -1.1919276696540382    -6.8467519530962475    -0.4946810801023922
H    -0.0754489688467595    -6.585157659285854    -1.7781038261894984
N    -0.9008086350193714    -4.563496668155164    0.5727012666143685
H    -1.7952962975561122    -5.000073628691646    0.7346858267255573
C    -0.46604010685584835    -3.565813026266058    1.5614591423407462
H    0.16855101619115695    -4.052827401623433    2.3063413647335502
H    0.12873064933239586    -2.8068632565168463    1.05905171573867
C    -1.6703348647425063    -2.9117518104059577    2.21866963810215
H    -2.247320411826122    -3.665987605451234    2.763302794154241
H    -2.3220749856309424    -2.5022912972641467    1.4432774634220285
C    -1.2408012741030352    -1.795854200236265    3.1628520357725365
H    -0.685012476363151    -2.181656841569932    4.018129887649265
H    -0.6089992889592396    -1.0736154882131534    2.6417394024488448
C    -2.8629636817760247    0.31957193165870645    3.476908557114037
O    -3.99602394544896    0.7143015572433082    3.6015481408613366
N    -1.8479935158020653    1.139348894661878    3.0507613935724964
H    -2.058918521175729    2.1247557134498867    3.067650927839715
H    -0.8849236651380614    0.8868822214457244    3.191435558502096
