75
fragments fixed, E = -50717.908224 eV
N    -9.174872562832366    1.7799881177538124    -5.108165179682007
H    -8.65844829686297    2.6096499658861445    -4.838201272769853
H    -9.142118523074673    1.7326065168271965    -6.1219624639412435
C    -8.544900746588631    0.580939546483603    -4.559908430138836
H    -8.52025931259965    0.677160348653142    -3.471833630222496
C    -6.994373722257473    -2.5191921642887256    -3.5937232463782682
C    -8.37184505994573    -2.476730749046014    -3.344622206216911
C    -8.910973837441631    -3.2969834746319884    -2.3339956760445886
C    -8.118467764206757    -4.155363751715846    -1.5735000971013178
C    -6.765374608251059    -4.178585971783629    -1.8428578119198242
C    -6.205416624011167    -3.3672456693821795    -2.8446132645736215
H    -6.554845161815094    -1.8904613027804231    -4.358902963224503
H    -8.544098673887293    -4.777273021652271    -0.796309283136288
H    -6.121177528088399    -4.830823390421954    -1.2670248619321225
H    -5.13631686569991    -3.3986015255956894    -3.0160606862183617
C    -9.458045311591022    -1.713723453842197    -3.905159915563329
C    -10.57521537314892    -2.097384825608114    -3.230883166321958
H    -11.592033846049752    -1.7600081202478195    -3.351760566178255
N    -10.259204039629685    -3.0432578712161713    -2.2759824885751434
H    -10.916910487252787    -3.4977975000290193    -1.670778720641096
C    -9.361056164220514    -0.6893702967538683    -4.989623489334983
H    -8.71460838837216    -1.028269476204355    -5.801520769600676
H    -10.34087230590113    -0.4732601319961192    -5.415154867606811
C    -7.101065729545811    0.44804401128027843    -5.132822378527622
O    -6.961878985197746    0.19056007765416383    -6.321340462928215
N    -6.005291433028376    0.6384000724552076    -4.350789960766847
H    -6.053888845689162    0.860722994628391    -3.3679555700064885
C    -4.690056346333668    0.44151846042001147    -4.94028837695334
H    -4.583380375186714    -0.592914008726538    -5.281399422645001
H    -4.58950691973462    1.0638173307206218    -5.833076967952286
C    -3.553857409412968    0.8042809127227897    -3.983614013195593
O    -3.7635914011705425    1.3924532173213855    -2.9371339762188096
N    -2.307148880541635    0.4664753751793039    -4.410909322581433
H    -2.1647082111892426    -0.07562527872633941    -5.251332682354151
C    -1.1035558501594027    0.833735784210055    -3.6856905294458002
H    -0.9110822355955295    1.9093499526026478    -3.7607715515642064
H    -1.22916774031181    0.5978404505168936    -2.629178293487779
C    0.11232661240135207    0.06872601900063895    -4.232851239105766
O    0.01834125180615537    -0.6466277529667711    -5.211497011836034
N    1.2752313773127193    0.2581323273344094    -3.544215017397356
H    1.2206667123955972    0.7964156701476013    -2.6939063322436287
C    2.489346750649875    -0.5103150830719574    -3.7836238401457924
H    2.576135638375463    -1.3180272753622202    -3.0517318329923047
H    2.395390216498869    -0.9582517000341401    -4.77308023446301
C    3.7538442288170075    0.366522273149855    -3.789240451838475
O    3.7574880017075247    1.4689323350211698    -4.300343908996351
N    4.864365396329684    -0.14115888753082254    -3.167031304432561
H    4.852719665265557    -1.0729490402328483    -2.7817943344556157
C    6.104148052200992    0.6356952829194392    -3.100871142028262
H    6.630980473447007    0.582635194854402    -4.057339085895679
H    5.854757215654242    1.6821065289211021    -2.939238994315452
C    7.127008839958739    0.11754903580174846    -2.073839887474607
O    7.665445392898753    -0.9614981790392644    -2.2534703115901196
N    7.490687252568054    0.9168497607171027    -1.0258791647965757
H    7.059041652640274    1.818850735466569    -0.9118940263065219
C    8.75160700845101    0.643686666805991    -0.3328145520022466
H    9.523727173965126    0.7948686933752971    -1.096523361597773
C    9.307427260299047    1.6196649371194556    0.795682150375625
H    10.251452468690445    1.0714002149550037    0.805253267307025
C    8.816917055899216    1.9113853070008846    2.2104068155164045
H    9.58146133063538    2.5045613128865694    2.724699128733303
C    7.525899663787565    2.724841407498607    2.1788325602280625
C    8.620012201818108    0.6151640369877205    2.9915807733439923
H    6.7495257128654504    2.1786343007918925    1.6377279611911146
H    7.151974948106173    2.922069272243191    3.1849894657877273
H    7.664094146681981    3.686499830036142    1.681518260599493
H    9.526465326007312    0.005994932638091648    2.985272402733273
H    8.355902325576114    0.8172450957798114    4.031320049731619
H    7.814593007337242    0.020740080272548138    2.548926612450783
H    9.459930366236106    2.540770079992641    0.2306050171018046
C    8.943101380365228    -0.8321671951603973    0.08156533028089598
O    8.228468374650255    -1.443374929701576    0.8420978479997462
N    10.126640628531806    -1.3555253465989239    -0.3706296273925327
H    10.244778311769505    -2.3368035431894665    -0.1716888661010892
H    10.467413967689431    -1.0536709125949897    -1.2682138676373516
