66
free relaxation, E = -43889.440101 eV
N    -7.748691110149488    0.9082750965765399    -5.243208615878167
H    -7.564555740134624    1.8998605098694656    -5.333970825024369
H    -7.237265835011141    0.42957723102778206    -5.976571306653634
C    -7.351273563066751    0.39684901238117204    -3.946188612011497
H    -7.82581454884468    1.0122004324002574    -3.175208432602286
C    -6.370080488833554    -4.000080494971913    -3.368855888011065
C    -6.758075310141728    -3.0257517517623094    -2.4392627902046446
C    -6.5655095259541545    -3.278270510668289    -1.0632288864005353
C    -5.976153371086585    -4.457239729657274    -0.5937566407153468
C    -5.600679891795461    -5.39620810613982    -1.5336394380561087
C    -5.805518274091435    -5.174739758867954    -2.9109866263345587
H    -6.53294345520344    -3.8483783269075866    -4.428375692175592
H    -5.8633160228290615    -4.641357687493306    0.4682096992563425
H    -5.176710273655414    -6.336679777343212    -1.2066280817256214
H    -5.547464396221355    -5.9578719763409165    -3.6148076603948804
C    -7.396521482462354    -1.7380446380886205    -2.5469464035955003
C    -7.551642427159732    -1.2958466750089388    -1.2597597009526056
H    -8.012228739460495    -0.38686199057695    -0.9041063164287821
N    -7.0559555883488265    -2.210999525010755    -0.36692724440511415
H    -6.909850014135714    -2.0589484416447603    0.6254016324840562
C    -7.842481080115534    -1.051795413852264    -3.8059988715669224
H    -7.464585855758892    -1.6069650531704736    -4.667184955586045
H    -8.92991679388555    -1.033804980092509    -3.888339460607933
C    -5.838620737958559    0.40085758902901825    -3.7337012324125456
O    -5.075498636676197    -0.16415380842106297    -4.494018178321392
N    -5.385432543139174    1.024611943304806    -2.6011739809385017
H    -6.0459783344848095    1.5094085492325064    -2.017353838138802
C    -3.98449888159204    1.0173195338001078    -2.2393669054985326
H    -3.3675031893091054    1.0712305282146857    -3.143166755365313
H    -3.7336971974075657    1.8967727897381514    -1.644786767270746
C    -3.486964068213982    -0.2111133585620383    -1.5108496835569678
O    -4.378088137210648    -1.1399722076906456    -1.4635827688212497
N    -6.095705914266151    -4.628386409037872    3.418839471771178
H    -5.255635367489605    -0.8984351121132261    -1.8656749719246306
C    -6.398433770600972    -3.360714897359511    3.935905988209456
H    -7.454310308527581    -3.1132538648986174    3.742512102178411
H    -6.246161372823138    -3.346003266118616    5.027457273396484
C    -5.541670458138506    -2.290069413493916    3.2410639740867833
O    -5.851873071384005    -1.8431948885528628    2.148862239761853
N    -4.405239415538207    -1.954794954735124    3.876598839273104
H    -4.271471768033289    -2.276901642552956    4.818434796487316
C    -3.4389012246422226    -1.0213876465089713    3.3182365380786614
H    -2.868146542824228    -0.6316641920329097    4.163818758279615
N    -0.7428225706307324    -3.355501949865074    -2.2627141763572802
H    -0.19494279248207239    -3.066783039759717    -1.472122075251458
H    -0.29200309199225416    -3.3917339309572485    -3.1600308490700484
C    -2.0502954359986427    -3.610398998681665    -2.135134757783209
N    -2.7479655635569658    -4.0045493666902585    -3.197801107656452
H    -3.7436014249821095    -4.187070100031851    -3.1296172699471083
H    -2.2936377575591034    -4.168891010729397    -4.078949964559604
N    -2.635880097852134    -3.487759553612913    -0.9574707288064589
H    -3.6386518836312876    -3.642463087359277    -0.9164152707875255
C    -2.007322307565272    -2.829727253722809    0.1863960870662623
H    -1.2432345154602746    -3.4850663214897426    0.6175789797374667
H    -1.5356759416650694    -1.9055076379827447    -0.16272854686254778
C    -3.0629488002622027    -2.4791212812237915    1.2203476019221415
H    -3.539419801746386    -3.3942149321644015    1.5838728421362323
H    -3.843734643141175    -1.8895344984927689    0.7418236145094892
C    -2.44169672109408    -1.7098546344875016    2.3831166251546816
H    -1.8325014368888237    -2.391572542611838    2.981763792653617
H    -1.7478335838787515    -0.9493859022183708    2.0109775902814278
C    -4.168012983964515    0.23128828787502972    2.7905099253606895
O    -5.043586737138341    0.74214377584579    3.450247043629471
N    -3.700207048787355    0.7756642781806093    1.6381836448830727
H    -4.140116191555936    1.629903550664601    1.3399096340596315
H    -3.087812025929155    0.3002448674442452    0.9959182641220441
