146
placed: glutamic isoleucine leucine serine tryptophan tyrosine phenylalanine aspartic glutamic serine
C    2.8035907241379308    -0.4830889310344828    0.31171544827586206
C    1.7467487241379311    -1.1601059310344828    0.919205448275862
C    0.4922377241379311    -0.5957459310344828    0.9020494482758621
C    0.23824372413793113    0.6453840689655173    0.3159804482758621
C    1.3068487241379312    1.3102510689655171    -0.2873885517241379
C    2.5812027241379307    0.7448800689655172    -0.2971815517241379
H    3.385087724137931    1.2793680689655171    -0.7846865517241379
C    -1.1168162758620688    1.2651360689655171    0.4203244482758621
O    -1.2606222758620689    2.4213810689655175    0.741730448275862
C    -2.313361275862069    0.40184506896551725    0.1452914482758621
C    -2.251433275862069    -0.7107779310344828    -0.6882195517241378
C    -3.534515275862069    0.7684500689655173    0.705222448275862
C    -3.394730275862069    -1.4473629310344829    -0.9568835517241381
H    -1.3101642758620689    -0.9932989310344829    -1.140039551724138
C    -4.671713275862069    0.02369006896551723    0.4503834482758621
H    -3.5719842758620692    1.6455220689655172    1.336883448275862
C    -4.603332275862068    -1.0852739310344828    -0.3828185517241379
H    -3.341309275862069    -2.3041529310344826    -1.615228551724138
H    -5.615068275862068    0.30802206896551726    0.8972854482758621
H    -5.494159275862069    -1.6648629310344827    -0.5867205517241378
H    1.933219724137931    -2.1131469310344824    1.391999448275862
O    4.004751724137932    -1.0934609310344827    0.3572304482758621
C    5.113187724137932    -0.45214493103448283    -0.22870755172413793
H    5.963530724137931    -1.1085179310344828    -0.06605955172413791
H    4.9706357241379315    -0.3100049310344828    -1.303546551724138
H    5.310409724137932    0.5144450689655172    0.24278844827586207
O    1.0733537241379312    2.4912180689655172    -0.8947645517241378
H    1.882667724137931    2.8245570689655173    -1.2809085517241379
H    -0.32650727586206885    -1.1222039310344827    1.3750634482758621
C    5.320099910790359    3.055054843099402    -4.348006384816607
C    5.594042608964493    3.6179414069336584    -2.958166846857267
C    4.563685102770989    3.1604625391732326    -1.9081081912708535
O    3.345486759961321    3.3032146105877644    -2.2116714692542137
O    5.020878167258621    2.6739967921865584    -0.8526321499625744
H    5.286554096327869    1.9630747674287374    -4.325001090737304
H    4.357365769029206    3.400404753725238    -4.720153069974031
H    6.101056090859681    3.352165562493997    -5.053893105028606
H    6.58278458974335    3.316530905049117    -2.6092520247864828
H    5.577030727569938    4.711625259722292    -2.9945570500821934
C    3.2773883245816355    -5.251022702925949    0.3898358001915965
H    2.9457278452287916    -6.293516893409474    0.4192300580454286
C    3.285932820146647    -4.683195534115868    1.8045587334248236
C    2.398200637549186    -4.483710533732349    -0.5952486315485183
H    3.7089633893229315    -3.6761081198246255    1.820206015819415
H    2.2804682020173463    -4.633682438314247    2.2274165729803825
H    3.886656513665028    -5.309439266407288    2.466098739727051
H    2.722635970769058    -3.4385389634341346    -0.6356625619915621
H    2.5554452275479154    -4.894410121124959    -1.5974906123141415
C    0.9113996088050946    -4.552812328409636    -0.26176949878720535
H    0.6665867082421001    -3.9927089661571316    0.642369382066857
H    0.31117926091597536    -4.139350208607967    -1.0733289464875069
H    0.5967383082807571    -5.588092195117236    -0.10573459942358862
H    4.301567924541921    -5.272766627403902    0.010431423886062626
C    -2.0381719005079386    5.360423039313892    -1.0178520411918819
H    -2.443628707920983    6.376202671108807    -1.0553864971561366
H    -1.4838493116086107    5.18111167269041    -1.9409709765262702
C    -3.167004952368079    4.352151956890413    -0.8410019576259137
H    -2.730652259788582    3.352411875285362    -0.8544561404280131
C    -3.8341706829171818    4.54950409270521    0.5137922955215001
C    -4.185593304054329    4.4439475916947355    -1.9716100507268453
H    -4.301995233429352    5.536568833670445    0.5679743213008251
H    -4.611202598290966    3.801612241502801    0.6876378566468773
H    -3.1031934967984016    4.476690990058865    1.3204091852661577
H    -3.722167145176233    4.248361573917089    -2.9407263760934317
H    -4.98879643587358    3.715491844469984    -1.8372853385678882
H    -4.638884010439489    5.439085248240383    -2.008599992338396
H    -1.336482859216533    5.302450970693354    -0.18403213783179628
O    -3.866795787212979    -2.5762214771123517    2.584546098361394
H    -4.1605371351636435    -1.9344262744571437    1.928138887169343
C    -2.4617468021873488    -2.45689807228653    2.7162540150229844
H    -1.943802766677162    -2.708602100439647    1.7838760314552236
H    -2.1636856641069446    -1.4483815703960363    3.0262302881585144
H    -2.146767452701611    -3.1607013833795503    3.4856774541700895
C    -6.270184062442015    -3.7900460092059363    0.9725589924157519
C    -7.462888321390824    -3.630244745618404    0.2560788551756118
C    -8.672413359354946    -3.5034634991743268    0.9653304735662755
C    -8.718164217589631    -3.497616498496527    2.360292643590802
C    -7.525316854270244    -3.631857897823992    3.0382859437359624
C    -6.3104401273978405    -3.7913167521588518    2.3495941650904686
H    -5.327379429037799    -3.9050287009747584    0.45179031570971295
H    -9.655542842701632    -3.3947854799121893    2.8923066533192956
H    -7.526173438669544    -3.6162211349741984    4.121122988288702
H    -5.396678612761425    -3.9199239360971045    2.9144475432720123
C    -7.776823047589589    -3.5864258876284563    -1.149918945259995
C    -9.129560390402242    -3.454579461575495    -1.2284860394015331
H    -9.767809226033076    -3.394963317662652    -2.096256841978661
N    -9.678093157996168    -3.398610243873512    0.03614042221916327
H    -10.660244862958924    -3.3774317002797023    0.23631242324793372
C    -6.796830853340427    -3.6310931816865715    -2.283525777752457
H    -6.675275936679206    -2.649729694093448    -2.747820333702663
H    -5.812385408347185    -3.943193364765604    -1.9318468879107087
H    -7.101431988569606    -4.3326959122865505    -3.060513269750069
C    7.244561432015037    3.082385075372951    0.46017636411258345
C    7.788526430825479    1.7337438154221907    0.8555954008483074
C    7.6053473230935165    1.2319021845093403    2.1418425322601027
C    8.110323916812876    -0.0016269136837391692    2.5200768923892936
C    8.818334507406155    -0.7665405214503593    1.6031038502341584
O    9.306521326438938    -1.9723576456525032    2.0200254782620437
C    9.007605011575277    -0.28926295618351755    0.31351184712929103
C    8.495643261555596    0.948020933460807    -0.04822517821133555
H    6.455994783857143    3.403424774948916    1.1414057866945866
H    6.832613287579976    3.0695599554193325    -0.5507543542119703
H    8.024345820009644    3.846355187513583    0.480625665251759
H    7.054943548166946    1.8182241354926123    2.8699730055056647
H    7.964033886804275    -0.38135131670854233    3.522000846110912
H    9.772357549299288    -2.4008663879878673    1.2944926522439177
H    9.557081698797127    -0.8793100814820041    -0.41127806938325845
H    8.65826506850064    1.3062272541285405    -1.0586474212072687
C    7.636495546232833    -5.42272309815374    0.9044904832692945
C    6.526302342182741    -4.727537227701106    0.45103080455782707
C    6.661521815676508    -3.778720277140655    -0.5534388297855068
C    7.905712295807275    -3.502785622547974    -1.113026399697148
C    9.013371908921059    -4.207198956783127    -0.6467440745953226
C    8.882432349086931    -5.1608858272532965    0.3514677983126017
H    7.530934356157245    -6.168131912014057    1.6814727796953923
H    5.551293469149688    -4.921784303847038    0.8793734522180049
H    5.784848965197277    -3.2442061220146154    -0.9025005268519002
H    9.991348974869226    -4.0024737076243895    -1.0682271369319005
H    9.753176730864922    -5.699615460551792    0.7051937846541737
C    8.05790698145654    -2.4690030508918355    -2.1969582492189
H    8.069692264805202    -2.931124682662831    -3.186635093143242
H    7.2308125908299985    -1.759376728576273    -2.17928296970326
H    8.99063253517278    -1.914973279363924    -2.0820409899092054
O    -6.496334241106247    1.975657799227112    2.2588859223882047
C    -7.572440764619242    1.6342853774509178    1.7171984092092754
C    -8.703309845689922    2.685727179354043    1.6990415884385621
H    -8.512081336321925    3.4852615164248477    2.414760155977264
H    -8.75815139384628    3.1198486316627845    0.6969327398462085
H    -9.666468001720418    2.2140649569179103    1.902748443322861
O    -7.833254218916848    0.5416000865537054    1.1564757014073446
C    0.9040108852348709    -1.9640357860808357    -2.569767439271708
C    1.9154955356797523    -1.9719312917157452    -3.704961159327752
C    2.559642281335256    -3.3578347553418366    -3.9909385169699045
O    2.338916089665951    -4.257289765667179    -3.149985437529457
O    3.244433195461828    -3.411088822615309    -5.036766263673518
H    0.07211233632698735    -2.6365166277036023    -2.7945035609115583
H    1.359055965128286    -2.322492540355734    -1.6465867278795332
H    0.5048839262078924    -0.9569086368953927    -2.402594432697335
H    1.4616065838079628    -1.617339155311849    -4.633820748386161
H    2.7375337989243507    -1.2788019585899832    -3.490601156109327
O    -6.508791318229472    2.5898232877801712    -0.6737286379592129
H    -5.6171352937454895    2.268640419886937    -0.5062541080700216
C    -7.2580780039856245    1.5501960958922774    -1.2779213545358197
H    -6.719279023269295    1.0837728379155103    -2.106664374914417
H    -7.540062348557826    0.7720280296249701    -0.5595832856760355
H    -8.172603915624034    1.9945812551430384    -1.6668861682603888
