150
placed: isoleucine leucine serine tryptophan tyrosine phenylalanine aspartic glutamic leucine serine
C    2.8035907241379308    -0.4830889310344828    0.31171544827586206
C    1.7467487241379311    -1.1601059310344828    0.919205448275862
C    0.4922377241379311    -0.5957459310344828    0.9020494482758621
C    0.23824372413793113    0.6453840689655173    0.3159804482758621
C    1.3068487241379312    1.3102510689655171    -0.2873885517241379
C    2.5812027241379307    0.7448800689655172    -0.2971815517241379
H    3.385087724137931    1.2793680689655171    -0.7846865517241379
C    -1.1168162758620688    1.2651360689655171    0.4203244482758621
O    -1.2606222758620689    2.4213810689655175    0.741730448275862
C    -2.313361275862069    0.40184506896551725    0.1452914482758621
C    -2.251433275862069    -0.7107779310344828    -0.6882195517241378
C    -3.534515275862069    0.7684500689655173    0.705222448275862
C    -3.394730275862069    -1.4473629310344829    -0.9568835517241381
H    -1.3101642758620689    -0.9932989310344829    -1.140039551724138
C    -4.671713275862069    0.02369006896551723    0.4503834482758621
H    -3.5719842758620692    1.6455220689655172    1.336883448275862
C    -4.603332275862068    -1.0852739310344828    -0.3828185517241379
H    -3.341309275862069    -2.3041529310344826    -1.615228551724138
H    -5.615068275862068    0.30802206896551726    0.8972854482758621
H    -5.494159275862069    -1.6648629310344827    -0.5867205517241378
H    1.933219724137931    -2.1131469310344824    1.391999448275862
O    4.004751724137932    -1.0934609310344827    0.3572304482758621
C    5.113187724137932    -0.45214493103448283    -0.22870755172413793
H    5.963530724137931    -1.1085179310344828    -0.06605955172413791
H    4.9706357241379315    -0.3100049310344828    -1.303546551724138
H    5.310409724137932    0.5144450689655172    0.24278844827586207
O    1.0733537241379312    2.4912180689655172    -0.8947645517241378
H    1.882667724137931    2.8245570689655173    -1.2809085517241379
H    -0.32650727586206885    -1.1222039310344827    1.3750634482758621
C    3.2773883245816355    -5.251022702925949    0.3898358001915965
H    2.9457278452287916    -6.293516893409474    0.4192300580454286
C    3.285932820146647    -4.683195534115868    1.8045587334248236
C    2.398200637549186    -4.483710533732349    -0.5952486315485183
H    3.7089633893229315    -3.6761081198246255    1.820206015819415
H    2.2804682020173463    -4.633682438314247    2.2274165729803825
H    3.886656513665028    -5.309439266407288    2.466098739727051
H    2.722635970769058    -3.4385389634341346    -0.6356625619915621
H    2.5554452275479154    -4.894410121124959    -1.5974906123141415
C    0.9113996088050946    -4.552812328409636    -0.26176949878720535
H    0.6665867082421001    -3.9927089661571316    0.642369382066857
H    0.31117926091597536    -4.139350208607967    -1.0733289464875069
H    0.5967383082807571    -5.588092195117236    -0.10573459942358862
H    4.301567924541921    -5.272766627403902    0.010431423886062626
C    4.374350707197572    4.313079653574175    -0.24311023486449435
H    5.076329433565864    5.136877411796282    -0.08502140969439814
H    3.606871572586859    4.674331413142786    -0.9338853996809298
C    3.754859222182122    3.866442144073935    1.0781997383997723
H    3.087711658831865    3.02431340217205    0.8775332852463287
C    4.811125938700304    3.377835903354413    2.0621526722151704
C    2.9214049548505936    4.985512382584596    1.6884285481532946
H    5.479024274153117    4.190449564226893    2.360136186613288
H    4.340496169189003    2.9853117826411633    2.9654335510921053
H    5.4265839164707    2.5850455705180275    1.6311028039843052
H    2.122886079630655    5.289011871108191    1.0097837155992317
H    2.4620203585862814    4.661806887163846    2.6236114603333656
H    3.5471419374920665    5.858111535909388    1.899216047363444
H    4.921999173762272    3.5029134298431495    -0.7332562849922146
O    -2.99137389453849    3.4776802858987783    -1.3060124790982444
H    -2.5166315411625066    3.279313379515519    -0.4863317553768392
C    -2.1527439619720887    3.1241020314330528    -2.386396686269361
H    -2.682253546092082    3.381788631422487    -3.3022490093295316
H    -1.2013910218464317    3.6651748704084315    -2.3605576497743583
H    -1.9365984280089084    2.0483297082879184    -2.4090679450925663
C    -6.270184062442015    -3.7900460092059363    0.9725589924157519
C    -7.462888321390824    -3.630244745618404    0.2560788551756118
C    -8.672413359354946    -3.5034634991743268    0.9653304735662755
C    -8.718164217589631    -3.497616498496527    2.360292643590802
C    -7.525316854270244    -3.631857897823992    3.0382859437359624
C    -6.3104401273978405    -3.7913167521588518    2.3495941650904686
H    -5.327379429037799    -3.9050287009747584    0.45179031570971295
H    -9.655542842701632    -3.3947854799121893    2.8923066533192956
H    -7.526173438669544    -3.6162211349741984    4.121122988288702
H    -5.396678612761425    -3.9199239360971045    2.9144475432720123
C    -7.776823047589589    -3.5864258876284563    -1.149918945259995
C    -9.129560390402242    -3.454579461575495    -1.2284860394015331
H    -9.767809226033076    -3.394963317662652    -2.096256841978661
N    -9.678093157996168    -3.398610243873512    0.03614042221916327
H    -10.660244862958924    -3.3774317002797023    0.23631242324793372
C    -6.796830853340427    -3.6310931816865715    -2.283525777752457
H    -6.675275936679206    -2.649729694093448    -2.747820333702663
H    -5.812385408347185    -3.943193364765604    -1.9318468879107087
H    -7.101431988569606    -4.3326959122865505    -3.060513269750069
C    7.244561432015037    3.082385075372951    0.46017636411258345
C    7.788526430825479    1.7337438154221907    0.8555954008483074
C    7.6053473230935165    1.2319021845093403    2.1418425322601027
C    8.110323916812876    -0.0016269136837391692    2.5200768923892936
C    8.818334507406155    -0.7665405214503593    1.6031038502341584
O    9.306521326438938    -1.9723576456525032    2.0200254782620437
C    9.007605011575277    -0.28926295618351755    0.31351184712929103
C    8.495643261555596    0.948020933460807    -0.04822517821133555
H    6.455994783857143    3.403424774948916    1.1414057866945866
H    6.832613287579976    3.0695599554193325    -0.5507543542119703
H    8.024345820009644    3.846355187513583    0.480625665251759
H    7.054943548166946    1.8182241354926123    2.8699730055056647
H    7.964033886804275    -0.38135131670854233    3.522000846110912
H    9.772357549299288    -2.4008663879878673    1.2944926522439177
H    9.557081698797127    -0.8793100814820041    -0.41127806938325845
H    8.65826506850064    1.3062272541285405    -1.0586474212072687
C    -1.7956935424380418    -5.0342645015847705    2.55352964336785
C    -2.2150187564699015    -6.279880842906089    2.113997473185252
C    -2.1724392111118807    -6.592952736735643    0.761918789247656
C    -1.7102113006522446    -5.673374147817359    -0.17193312405149289
C    -1.2817995121483063    -4.427312757523742    0.28150308067043195
C    -1.3229863421425176    -4.110988226134296    1.6302205530017297
H    -1.8393368614375671    -4.779825925271129    3.6048025309849363
H    -2.574088472254363    -7.015823159285058    2.8211960905183537
H    -2.505626526901766    -7.567493544719226    0.4251891710540649
H    -0.9126208622196739    -3.696397185473862    -0.43124292037733486
H    -0.9924252558847098    -3.135865724668862    1.965707538178173
C    -1.6829627848128486    -6.000992360161386    -1.6403171814712987
H    -0.6956716658392016    -5.81415333982894    -2.0640172107850265
H    -1.9351078399003594    -7.045339555141959    -1.8210198482078244
H    -2.3974241700849457    -5.385281612984397    -2.1912967100188783
O    3.8752650847460464    -3.724195611901375    -3.8129998473235616
C    4.334965366438591    -2.927093430639324    -2.972022131752187
C    5.234400021048754    -3.5382226696306884    -1.8664298532141614
H    6.273339697069077    -3.2501440670447157    -2.052705277713653
H    4.9504937188817815    -3.1525732554981722    -0.8861354058175844
H    5.168279347870284    -4.625431375900834    -1.8624402165644418
O    4.176136456758627    -1.679711015309744    -2.907979781264183
C    9.854354938966523    -2.0801203843534526    -2.2180486586593884
C    9.792826948919398    -3.0445130185813154    -1.043219752323436
C    8.513306149875449    -2.925469221644909    -0.17610682043662013
O    7.793808995658905    -1.9135562683262521    -0.3834387777600558
O    8.338029333251232    -3.8406265814469407    0.6514847881642152
H    9.789295704358045    -1.0509322611060847    -1.866038591645165
H    10.777530486982084    -2.197522163886877    -2.7947694463991715
H    9.007157501963215    -2.23580413290926    -2.8880854020157143
H    9.870263582458131    -4.082785199034816    -1.374559279246789
H    10.640682515712387    -2.8809461889097983    -0.37012578268775725
C    -8.421947412212448    3.027182503520755    -0.3889616588052672
H    -8.719487114208267    4.079161728624368    -0.39301580501523087
H    -8.841702663306204    2.5661986403824093    0.5072631115314152
C    -6.902321512987427    2.902457021753332    -0.4185075656140665
H    -6.649322150873957    1.83773776945718    -0.4138797024310193
C    -6.330700686239254    3.5170520707832833    -1.6920433992859412
C    -6.280149014194896    3.5409881095658173    0.8190232834123355
H    -6.561618895149975    4.585034163295988    -1.7378535231138972
H    -5.245647577502089    3.408987549726433    -1.7338763956057925
H    -6.75123755752427    3.0475540469731666    -2.5834429221534223
H    -6.66440491421419    3.0889711367905863    1.736033952487186
H    -5.194169365135934    3.433881768295792    0.8192729706880804
H    -6.509304755910167    4.609755922829417    0.853993173167627
H    -8.87717556074673    2.549272894368697    -1.2584636471220412
O    0.1948746214699303    -0.34804943589222076    -2.9583493942411674
H    0.09784478527891526    -0.1079925805262375    -3.883448882719239
C    1.0903391099119155    -1.4448861162027298    -2.854384340894312
H    1.0741294656483826    -1.769117830415429    -1.8153394085101446
H    0.7861529585995313    -2.2833988784704338    -3.487405014839705
H    2.1154401095308426    -1.1593140539628104    -3.1078011417350373
