144
placed: lysine aspartic glutamic isoleucine leucine serine tryptophan phenylalanine aspartic serine
C    2.8035907241379308    -0.4830889310344828    0.31171544827586206
C    1.7467487241379311    -1.1601059310344828    0.919205448275862
C    0.4922377241379311    -0.5957459310344828    0.9020494482758621
C    0.23824372413793113    0.6453840689655173    0.3159804482758621
C    1.3068487241379312    1.3102510689655171    -0.2873885517241379
C    2.5812027241379307    0.7448800689655172    -0.2971815517241379
H    3.385087724137931    1.2793680689655171    -0.7846865517241379
C    -1.1168162758620688    1.2651360689655171    0.4203244482758621
O    -1.2606222758620689    2.4213810689655175    0.741730448275862
C    -2.313361275862069    0.40184506896551725    0.1452914482758621
C    -2.251433275862069    -0.7107779310344828    -0.6882195517241378
C    -3.534515275862069    0.7684500689655173    0.705222448275862
C    -3.394730275862069    -1.4473629310344829    -0.9568835517241381
H    -1.3101642758620689    -0.9932989310344829    -1.140039551724138
C    -4.671713275862069    0.02369006896551723    0.4503834482758621
H    -3.5719842758620692    1.6455220689655172    1.336883448275862
C    -4.603332275862068    -1.0852739310344828    -0.3828185517241379
H    -3.341309275862069    -2.3041529310344826    -1.615228551724138
H    -5.615068275862068    0.30802206896551726    0.8972854482758621
H    -5.494159275862069    -1.6648629310344827    -0.5867205517241378
H    1.933219724137931    -2.1131469310344824    1.391999448275862
O    4.004751724137932    -1.0934609310344827    0.3572304482758621
C    5.113187724137932    -0.45214493103448283    -0.22870755172413793
H    5.963530724137931    -1.1085179310344828    -0.06605955172413791
H    4.9706357241379315    -0.3100049310344828    -1.303546551724138
H    5.310409724137932    0.5144450689655172    0.24278844827586207
O    1.0733537241379312    2.4912180689655172    -0.8947645517241378
H    1.882667724137931    2.8245570689655173    -1.2809085517241379
H    -0.32650727586206885    -1.1222039310344827    1.3750634482758621
N    -4.0692960204117945    1.7486801727553292    -2.2979029263709307
H    -3.67803868077148    1.0328905962114023    -2.9106189659053694
H    -4.201832496294756    1.312365901286466    -1.370797525318087
C    -3.1734720437350847    2.958638965533266    -2.178383607247295
H    -3.0132267888871946    3.3318474586554387    -3.1883616624249047
H    -2.2286955357605427    2.6057090375568985    -1.7683764502210384
C    -3.799665813760806    4.0024931247478746    -1.2780957523970997
H    -4.736023943236125    4.371709117484343    -1.71197794872963
H    -4.039136802946906    3.5534899419408332    -0.31009816125174594
C    -2.8308694385253426    5.159702280942376    -1.053652374811819
H    -2.557800368504823    5.595358166001925    -2.0181747492303326
H    -1.9161835659489939    4.759101764780149    -0.6099417190442844
C    -3.4251754688189897    6.230818043351059    -0.15131298187390166
H    -3.6591662823034703    5.823412761814883    0.8330253862527448
H    -2.7242879046145023    7.051823495783444    -0.012952890079137401
H    -4.341980570367878    6.645553100137806    -0.57380867565895
H    -4.9882825825379395    2.0114326056235146    -2.655986271367353
O    5.146744237261071    2.464813661221084    -1.27115346131508
C    4.504984758630917    3.5352670696663453    -1.2031470512645788
C    5.245870819815161    4.739636346130508    -0.6015640609723916
H    6.216508406418412    4.85842366056726    -1.084084071071623
H    4.664282450741371    5.654582368434958    -0.6950815854521727
H    5.434519223733137    4.537200960078071    0.45587573088093825
O    3.308782934803547    3.7238883787983834    -1.550872489959813
C    -2.606713735836563    -3.260598824388388    2.5044542324810983
C    -1.7991407221594296    -4.115269375087354    1.5382133171850285
C    -0.2712773990456708    -3.865318217178265    1.5901490702448575
O    0.16036076448297634    -3.2456010169028024    2.5925554621961573
O    0.38274860357130175    -4.310941532212161    0.6216807213095721
H    -2.326259134738841    -3.479003553705364    3.5346075941923294
H    -2.4006344012327965    -2.199343641807412    2.345577227554519
H    -3.684395323590094    -3.416628063085414    2.3888553431537773
H    -1.9492822491746036    -5.179285160149966    1.7464966241649647
H    -2.123267812567399    -3.963231637457522    0.506642554620972
C    3.726934630407457    -4.047908538199601    -3.153918884429938
H    2.8025216983910215    -4.365488569383929    -2.6605543019158824
C    4.796837147604915    -3.783788447773827    -2.1002857423891976
C    3.4285974315040346    -2.8394299520761335    -4.038944649413299
H    5.742518290418091    -3.4962967560573053    -2.567401875376323
H    4.4969185243429415    -2.991813107168333    -1.4127511247081654
H    4.984962635821996    -4.674464718574784    -1.500572823154966
H    4.367258843487079    -2.479546535117041    -4.472628612529052
H    2.8072119339931123    -3.1575919813594147    -4.879829988985592
C    2.729058479697    -1.7023206313498886    -3.3029503462011682
H    3.329223294369808    -1.3304008369854232    -2.471216855286889
H    2.5290299440032444    -0.8581889956192517    -3.965252183836185
H    1.7756444651491086    -2.0367725480963483    -2.8862043750567867
H    4.044603276889318    -4.880907086256553    -3.7862180223413224
C    9.919183350386534    1.2881689608231155    -0.184224528591447
H    9.314460479757752    0.51043742853868    -0.6591580157512946
H    10.95784359429694    0.9546913021922218    -0.189978179283871
C    9.417486505347686    1.5628983179470786    1.229872224462205
H    10.083128684008916    2.2995812021438025    1.6916572827075274
C    8.013291280676297    2.156314858888984    1.1887728139672429
C    9.450012571840423    0.2987516706929413    2.083867544681321
H    7.337067070334171    1.4892532506797127    0.6478413783470724
H    7.6103841570081014    2.297220419271434    2.192616165488627
H    8.00268544001659    3.1219199592954356    0.6804507907443441
H    10.462929522509036    -0.0960956831223161    2.1793580620851905
H    9.072524064073827    0.491123060391213    3.0891888992487453
H    8.825344957896316    -0.48399474140918675    1.644405932849614
H    9.852210474213878    2.1807361010479256    -0.808046094688997
O    -6.508791318229472    2.5898232877801712    -0.6737286379592129
H    -5.6171352937454895    2.268640419886937    -0.5062541080700216
C    -7.2580780039856245    1.5501960958922774    -1.2779213545358197
H    -6.719279023269295    1.0837728379155103    -2.106664374914417
H    -7.540062348557826    0.7720280296249701    -0.5595832856760355
H    -8.172603915624034    1.9945812551430384    -1.6668861682603888
C    -6.270184062442015    -3.7900460092059363    0.9725589924157519
C    -7.462888321390824    -3.630244745618404    0.2560788551756118
C    -8.672413359354946    -3.5034634991743268    0.9653304735662755
C    -8.718164217589631    -3.497616498496527    2.360292643590802
C    -7.525316854270244    -3.631857897823992    3.0382859437359624
C    -6.3104401273978405    -3.7913167521588518    2.3495941650904686
H    -5.327379429037799    -3.9050287009747584    0.45179031570971295
H    -9.655542842701632    -3.3947854799121893    2.8923066533192956
H    -7.526173438669544    -3.6162211349741984    4.121122988288702
H    -5.396678612761425    -3.9199239360971045    2.9144475432720123
C    -7.776823047589589    -3.5864258876284563    -1.149918945259995
C    -9.129560390402242    -3.454579461575495    -1.2284860394015331
H    -9.767809226033076    -3.394963317662652    -2.096256841978661
N    -9.678093157996168    -3.398610243873512    0.03614042221916327
H    -10.660244862958924    -3.3774317002797023    0.23631242324793372
C    -6.796830853340427    -3.6310931816865715    -2.283525777752457
H    -6.675275936679206    -2.649729694093448    -2.747820333702663
H    -5.812385408347185    -3.943193364765604    -1.9318468879107087
H    -7.101431988569606    -4.3326959122865505    -3.060513269750069
C    7.636495546232833    -5.42272309815374    0.9044904832692945
C    6.526302342182741    -4.727537227701106    0.45103080455782707
C    6.661521815676508    -3.778720277140655    -0.5534388297855068
C    7.905712295807275    -3.502785622547974    -1.113026399697148
C    9.013371908921059    -4.207198956783127    -0.6467440745953226
C    8.882432349086931    -5.1608858272532965    0.3514677983126017
H    7.530934356157245    -6.168131912014057    1.6814727796953923
H    5.551293469149688    -4.921784303847038    0.8793734522180049
H    5.784848965197277    -3.2442061220146154    -0.9025005268519002
H    9.991348974869226    -4.0024737076243895    -1.0682271369319005
H    9.753176730864922    -5.699615460551792    0.7051937846541737
C    8.05790698145654    -2.4690030508918355    -2.1969582492189
H    8.069692264805202    -2.931124682662831    -3.186635093143242
H    7.2308125908299985    -1.759376728576273    -2.17928296970326
H    8.99063253517278    -1.914973279363924    -2.0820409899092054
O    -0.0007993149803398186    -2.398574723928293    -1.9741091024763837
C    -0.006126815673623878    -3.2970520570900756    -1.096929100842964
C    1.0577326157620415    -4.398577605658972    -1.272345142754937
H    2.0470788231752057    -3.9378653476963463    -1.3137341854350109
H    1.0142060534467652    -5.123976349644858    -0.46038304919351347
H    0.8956903994478523    -4.900295623677694    -2.2282370321881038
O    -0.7662548705552275    -3.392873908981172    -0.1055487971770091
O    4.18109324438896    -4.951371078814236    1.4877918893812037
H    4.101218184235451    -4.302557511544935    2.1918778977393174
C    3.278458601485041    -4.600449383551319    0.4494399079952968
H    2.242062661508811    -4.564339224952592    0.7986264018399055
H    3.5337728532429162    -3.6412660178759846    -0.006420050882537873
H    3.3466851244121223    -5.377134772709362    -0.3084217642058739
