158
placed: leucine serine tryptophan tyrosine phenylalanine arginine lysine aspartic glutamic serine
C    2.8035907241379308    -0.4830889310344828    0.31171544827586206
C    1.7467487241379311    -1.1601059310344828    0.919205448275862
C    0.4922377241379311    -0.5957459310344828    0.9020494482758621
C    0.23824372413793113    0.6453840689655173    0.3159804482758621
C    1.3068487241379312    1.3102510689655171    -0.2873885517241379
C    2.5812027241379307    0.7448800689655172    -0.2971815517241379
H    3.385087724137931    1.2793680689655171    -0.7846865517241379
C    -1.1168162758620688    1.2651360689655171    0.4203244482758621
O    -1.2606222758620689    2.4213810689655175    0.741730448275862
C    -2.313361275862069    0.40184506896551725    0.1452914482758621
C    -2.251433275862069    -0.7107779310344828    -0.6882195517241378
C    -3.534515275862069    0.7684500689655173    0.705222448275862
C    -3.394730275862069    -1.4473629310344829    -0.9568835517241381
H    -1.3101642758620689    -0.9932989310344829    -1.140039551724138
C    -4.671713275862069    0.02369006896551723    0.4503834482758621
H    -3.5719842758620692    1.6455220689655172    1.336883448275862
C    -4.603332275862068    -1.0852739310344828    -0.3828185517241379
H    -3.341309275862069    -2.3041529310344826    -1.615228551724138
H    -5.615068275862068    0.30802206896551726    0.8972854482758621
H    -5.494159275862069    -1.6648629310344827    -0.5867205517241378
H    1.933219724137931    -2.1131469310344824    1.391999448275862
O    4.004751724137932    -1.0934609310344827    0.3572304482758621
C    5.113187724137932    -0.45214493103448283    -0.22870755172413793
H    5.963530724137931    -1.1085179310344828    -0.06605955172413791
H    4.9706357241379315    -0.3100049310344828    -1.303546551724138
H    5.310409724137932    0.5144450689655172    0.24278844827586207
O    1.0733537241379312    2.4912180689655172    -0.8947645517241378
H    1.882667724137931    2.8245570689655173    -1.2809085517241379
H    -0.32650727586206885    -1.1222039310344827    1.3750634482758621
C    4.374350707197572    4.313079653574175    -0.24311023486449435
H    5.076329433565864    5.136877411796282    -0.08502140969439814
H    3.606871572586859    4.674331413142786    -0.9338853996809298
C    3.754859222182122    3.866442144073935    1.0781997383997723
H    3.087711658831865    3.02431340217205    0.8775332852463287
C    4.811125938700304    3.377835903354413    2.0621526722151704
C    2.9214049548505936    4.985512382584596    1.6884285481532946
H    5.479024274153117    4.190449564226893    2.360136186613288
H    4.340496169189003    2.9853117826411633    2.9654335510921053
H    5.4265839164707    2.5850455705180275    1.6311028039843052
H    2.122886079630655    5.289011871108191    1.0097837155992317
H    2.4620203585862814    4.661806887163846    2.6236114603333656
H    3.5471419374920665    5.858111535909388    1.899216047363444
H    4.921999173762272    3.5029134298431495    -0.7332562849922146
O    -2.99137389453849    3.4776802858987783    -1.3060124790982444
H    -2.5166315411625066    3.279313379515519    -0.4863317553768392
C    -2.1527439619720887    3.1241020314330528    -2.386396686269361
H    -2.682253546092082    3.381788631422487    -3.3022490093295316
H    -1.2013910218464317    3.6651748704084315    -2.3605576497743583
H    -1.9365984280089084    2.0483297082879184    -2.4090679450925663
C    -1.0458087974500563    -4.727181699492804    0.7486026372361906
C    0.35016788246708846    -4.639809177548158    0.6736729202192122
C    0.957456967382484    -4.461601268652531    -0.584851927079951
C    0.21694928139491046    -4.38403298652978    -1.764446075502705
C    -1.1540917497825358    -4.4917873432897215    -1.660421887908561
C    -1.7830112607475879    -4.656142669210334    -0.4145605469704131
H    -1.540637414325972    -4.861900066183793    1.7033728093693115
H    0.6952292940088117    -4.2524659899672645    -2.7276978187824255
H    -1.7586226548050774    -4.456193773901171    -2.5584940703526957
H    -2.862611116909886    -4.731192586964191    -0.3739133880430185
C    1.4040022087708606    -4.697650255128779    1.6552579153890852
C    2.569001108779517    -4.5597728329126515    0.9657395684968986
H    3.581063592702407    -4.535577057216889    1.3360995048723858
N    2.3142867890558896    -4.417063561821135    -0.3813945221329552
H    3.006982648037426    -4.260695812705904    -1.0884881487977698
C    1.2374939552082878    -4.830756549999007    3.134686039112588
H    0.6214161855327822    -4.019896467507708    3.5320676359360608
H    0.7523594799535334    -5.770364213758054    3.410842611533915
H    2.2024382977079697    -4.789684749345168    3.6409737712537216
C    7.244561432015037    3.082385075372951    0.46017636411258345
C    7.788526430825479    1.7337438154221907    0.8555954008483074
C    7.6053473230935165    1.2319021845093403    2.1418425322601027
C    8.110323916812876    -0.0016269136837391692    2.5200768923892936
C    8.818334507406155    -0.7665405214503593    1.6031038502341584
O    9.306521326438938    -1.9723576456525032    2.0200254782620437
C    9.007605011575277    -0.28926295618351755    0.31351184712929103
C    8.495643261555596    0.948020933460807    -0.04822517821133555
H    6.455994783857143    3.403424774948916    1.1414057866945866
H    6.832613287579976    3.0695599554193325    -0.5507543542119703
H    8.024345820009644    3.846355187513583    0.480625665251759
H    7.054943548166946    1.8182241354926123    2.8699730055056647
H    7.964033886804275    -0.38135131670854233    3.522000846110912
H    9.772357549299288    -2.4008663879878673    1.2944926522439177
H    9.557081698797127    -0.8793100814820041    -0.41127806938325845
H    8.65826506850064    1.3062272541285405    -1.0586474212072687
C    -3.0044378481357636    5.145014905855749    -1.2253417502658421
C    -2.058266794654762    5.748278891656381    -0.4064746003808788
C    -2.128865744790206    5.5965242134464415    0.9687227733007665
C    -3.144066304675667    4.844262057803531    1.5527224742543602
C    -4.096092840927279    4.265249160945029    0.7238510585986254
C    -4.026287982497534    4.402442500275115    -0.6555256337622569
H    -2.9494763036683542    5.260535122769036    -2.3001921123647513
H    -1.2568402220941175    6.3319883227702505    -0.8439178760687923
H    -1.3765711880023794    6.054116397395146    1.602342703887008
H    -4.899914682153837    3.6866798814294794    1.1650542894591216
H    -4.770382510370983    3.9279510434353235    -1.284220379583971
C    -3.164440666857428    4.61456846076083    3.0385627404523765
H    -2.399580000640401    3.885725341220535    3.3148171288317414
H    -2.9551600635959407    5.534344166164589    3.585678745593857
H    -4.128372613630973    4.228472891502545    3.369983391143472
N    6.1459958252698055    -1.3418926953641486    3.1440759639790823
H    7.108560654082961    -1.5446257098312859    2.9412684179187774
H    5.940901293251277    -0.48227939693813154    3.624106037959016
C    5.188046077280639    -2.2476174262512547    2.936251697189202
N    4.003155986489957    -2.089923955971392    3.535988476809569
H    3.1788679508512514    -2.491629384182327    3.122912353672016
H    3.8545088391296423    -1.3218235561622025    4.167169299334381
N    5.407761590373608    -3.307070788292543    2.1767799162660197
H    4.683592809185952    -4.009181055861839    2.154941512144549
C    6.533609170207867    -3.500368783703833    1.2552329917949125
H    7.032945646239503    -2.5407504162349257    1.1143308253820858
H    7.2542901494628484    -4.189343708783841    1.7000251310211034
C    6.0405291924712845    -4.0207281238981    -0.08873544678355724
H    5.267978588738747    -3.345125104575237    -0.4619433926952273
H    5.565706532410679    -4.994879893748296    0.06029716295556262
C    7.174493190051817    -4.140933424884089    -1.0999360678732504
H    6.799834535146327    -4.52348902954541    -2.0480955366677853
H    7.634629746652868    -3.1695143116851994    -1.295633994956819
H    7.951011228005678    -4.823352976777425    -0.7525947564665632
N    -8.979325646390484    -1.9307241895271399    -1.3307368579126944
H    -9.271192159511754    -2.8319711098002305    -1.710943129794311
H    -9.728149359911791    -1.254521643846895    -1.4982653976831588
C    -8.662824347750522    -2.003088663121471    0.15202331427910998
H    -7.769549974309208    -2.618970292352403    0.2513454535516076
H    -9.499570285404374    -2.514984749343966    0.6251138632431341
C    -8.465021266190606    -0.599969878125463    0.6851073499188616
H    -7.737658561667366    -0.07349013341942214    0.05686889911219249
H    -9.408981073032459    -0.04860475843367216    0.6138925637972021
C    -7.96981969240673    -0.5914453246150142    2.1298725430467065
H    -6.976356597739238    -1.0475799866330893    2.165606471032896
H    -8.619808618313977    -1.2139650344950654    2.7497333118136775
C    -7.932287296386901    0.8273560457627614    2.6848324599376427
H    -8.938785055064159    1.2427969354148434    2.7517745947812235
H    -7.493761243022337    0.8499080440000624    3.6803181847980126
H    -7.3424314746613435    1.4879575427937457    2.0464598845623065
H    -8.16154131742405    -1.614828379114894    -1.8569204471776817
O    -4.920826281439654    -2.492476875519977    2.7653856781295754
C    -5.7109487941357315    -2.864134598700052    1.872097984179265
C    -5.363376263310313    -4.211438853124358    1.1898129887357098
H    -5.654121746412211    -5.032450864774303    1.8519748239103655
H    -5.897309921806807    -4.32747657302237    0.2443966335120007
H    -4.2849240204662715    -4.285564749271822    1.0307752310963465
O    -6.740849629075091    -2.282146077004953    1.4517302718129956
C    9.854354938966523    -2.0801203843534526    -2.2180486586593884
C    9.792826948919398    -3.0445130185813154    -1.043219752323436
C    8.513306149875449    -2.925469221644909    -0.17610682043662013
O    7.793808995658905    -1.9135562683262521    -0.3834387777600558
O    8.338029333251232    -3.8406265814469407    0.6514847881642152
H    9.789295704358045    -1.0509322611060847    -1.866038591645165
H    10.777530486982084    -2.197522163886877    -2.7947694463991715
H    9.007157501963215    -2.23580413290926    -2.8880854020157143
H    9.870263582458131    -4.082785199034816    -1.374559279246789
H    10.640682515712387    -2.8809461889097983    -0.37012578268775725
O    0.1948746214699303    -0.34804943589222076    -2.9583493942411674
H    0.09784478527891526    -0.1079925805262375    -3.883448882719239
C    1.0903391099119155    -1.4448861162027298    -2.854384340894312
H    1.0741294656483826    -1.769117830415429    -1.8153394085101446
H    0.7861529585995313    -2.2833988784704338    -3.487405014839705
H    2.1154401095308426    -1.1593140539628104    -3.1078011417350373
