157
placed: phenylalanine arginine lysine aspartic glutamic isoleucine leucine serine tryptophan aspartic
C    2.8035907241379308    -0.4830889310344828    0.31171544827586206
C    1.7467487241379311    -1.1601059310344828    0.919205448275862
C    0.4922377241379311    -0.5957459310344828    0.9020494482758621
C    0.23824372413793113    0.6453840689655173    0.3159804482758621
C    1.3068487241379312    1.3102510689655171    -0.2873885517241379
C    2.5812027241379307    0.7448800689655172    -0.2971815517241379
H    3.385087724137931    1.2793680689655171    -0.7846865517241379
C    -1.1168162758620688    1.2651360689655171    0.4203244482758621
O    -1.2606222758620689    2.4213810689655175    0.741730448275862
C    -2.313361275862069    0.40184506896551725    0.1452914482758621
C    -2.251433275862069    -0.7107779310344828    -0.6882195517241378
C    -3.534515275862069    0.7684500689655173    0.705222448275862
C    -3.394730275862069    -1.4473629310344829    -0.9568835517241381
H    -1.3101642758620689    -0.9932989310344829    -1.140039551724138
C    -4.671713275862069    0.02369006896551723    0.4503834482758621
H    -3.5719842758620692    1.6455220689655172    1.336883448275862
C    -4.603332275862068    -1.0852739310344828    -0.3828185517241379
H    -3.341309275862069    -2.3041529310344826    -1.615228551724138
H    -5.615068275862068    0.30802206896551726    0.8972854482758621
H    -5.494159275862069    -1.6648629310344827    -0.5867205517241378
H    1.933219724137931    -2.1131469310344824    1.391999448275862
O    4.004751724137932    -1.0934609310344827    0.3572304482758621
C    5.113187724137932    -0.45214493103448283    -0.22870755172413793
H    5.963530724137931    -1.1085179310344828    -0.06605955172413791
H    4.9706357241379315    -0.3100049310344828    -1.303546551724138
H    5.310409724137932    0.5144450689655172    0.24278844827586207
O    1.0733537241379312    2.4912180689655172    -0.8947645517241378
H    1.882667724137931    2.8245570689655173    -1.2809085517241379
H    -0.32650727586206885    -1.1222039310344827    1.3750634482758621
C    -1.7956935424380418    -5.0342645015847705    2.55352964336785
C    -2.2150187564699015    -6.279880842906089    2.113997473185252
C    -2.1724392111118807    -6.592952736735643    0.761918789247656
C    -1.7102113006522446    -5.673374147817359    -0.17193312405149289
C    -1.2817995121483063    -4.427312757523742    0.28150308067043195
C    -1.3229863421425176    -4.110988226134296    1.6302205530017297
H    -1.8393368614375671    -4.779825925271129    3.6048025309849363
H    -2.574088472254363    -7.015823159285058    2.8211960905183537
H    -2.505626526901766    -7.567493544719226    0.4251891710540649
H    -0.9126208622196739    -3.696397185473862    -0.43124292037733486
H    -0.9924252558847098    -3.135865724668862    1.965707538178173
C    -1.6829627848128486    -6.000992360161386    -1.6403171814712987
H    -0.6956716658392016    -5.81415333982894    -2.0640172107850265
H    -1.9351078399003594    -7.045339555141959    -1.8210198482078244
H    -2.3974241700849457    -5.385281612984397    -2.1912967100188783
N    -3.207826463834045    5.512238044199815    -0.5577004944019077
H    -3.869405963582918    5.339822135947699    -1.2928703663193393
H    -3.5158100838772195    6.046960654375811    0.23427945931588776
C    -2.0201201717533177    4.902948249633008    -0.5453870506707316
N    -1.1207710820072398    5.21402335171038    0.3962356549490849
H    -0.5162635949398005    4.459446382014214    0.6979552028544044
H    -1.362404405398243    5.903933772117332    1.087683276619551
N    -1.6994960183568564    4.03176274215154    -1.4872542658199257
H    -0.8043379875559095    3.5694568014102295    -1.3655547832043726
C    -2.68754330744655    3.312975191979393    -2.2924508324421136
H    -3.3387959405579912    2.7296806690154467    -1.6329343816069848
H    -3.3030385981384356    4.028009895281353    -2.8447133076410918
C    -1.9933785271891231    2.3939971168846537    -3.28220760303692
H    -1.2891729798008336    1.7537502557813867    -2.7411727278974642
H    -1.4093430974043006    2.997532012863    -3.981036490175511
C    -3.0126950574166282    1.5379460603063382    -4.023399646220054
H    -2.543885173633196    0.9723812715967131    -4.827560228674102
H    -3.494345128691037    0.8292239759241649    -3.346978669355961
H    -3.7952042808457147    2.1572629885659693    -4.466517920167068
N    -8.979325646390484    -1.9307241895271399    -1.3307368579126944
H    -9.271192159511754    -2.8319711098002305    -1.710943129794311
H    -9.728149359911791    -1.254521643846895    -1.4982653976831588
C    -8.662824347750522    -2.003088663121471    0.15202331427910998
H    -7.769549974309208    -2.618970292352403    0.2513454535516076
H    -9.499570285404374    -2.514984749343966    0.6251138632431341
C    -8.465021266190606    -0.599969878125463    0.6851073499188616
H    -7.737658561667366    -0.07349013341942214    0.05686889911219249
H    -9.408981073032459    -0.04860475843367216    0.6138925637972021
C    -7.96981969240673    -0.5914453246150142    2.1298725430467065
H    -6.976356597739238    -1.0475799866330893    2.165606471032896
H    -8.619808618313977    -1.2139650344950654    2.7497333118136775
C    -7.932287296386901    0.8273560457627614    2.6848324599376427
H    -8.938785055064159    1.2427969354148434    2.7517745947812235
H    -7.493761243022337    0.8499080440000624    3.6803181847980126
H    -7.3424314746613435    1.4879575427937457    2.0464598845623065
H    -8.16154131742405    -1.614828379114894    -1.8569204471776817
O    5.146744237261071    2.464813661221084    -1.27115346131508
C    4.504984758630917    3.5352670696663453    -1.2031470512645788
C    5.245870819815161    4.739636346130508    -0.6015640609723916
H    6.216508406418412    4.85842366056726    -1.084084071071623
H    4.664282450741371    5.654582368434958    -0.6950815854521727
H    5.434519223733137    4.537200960078071    0.45587573088093825
O    3.308782934803547    3.7238883787983834    -1.550872489959813
C    9.854354938966523    -2.0801203843534526    -2.2180486586593884
C    9.792826948919398    -3.0445130185813154    -1.043219752323436
C    8.513306149875449    -2.925469221644909    -0.17610682043662013
O    7.793808995658905    -1.9135562683262521    -0.3834387777600558
O    8.338029333251232    -3.8406265814469407    0.6514847881642152
H    9.789295704358045    -1.0509322611060847    -1.866038591645165
H    10.777530486982084    -2.197522163886877    -2.7947694463991715
H    9.007157501963215    -2.23580413290926    -2.8880854020157143
H    9.870263582458131    -4.082785199034816    -1.374559279246789
H    10.640682515712387    -2.8809461889097983    -0.37012578268775725
C    3.2773883245816355    -5.251022702925949    0.3898358001915965
H    2.9457278452287916    -6.293516893409474    0.4192300580454286
C    3.285932820146647    -4.683195534115868    1.8045587334248236
C    2.398200637549186    -4.483710533732349    -0.5952486315485183
H    3.7089633893229315    -3.6761081198246255    1.820206015819415
H    2.2804682020173463    -4.633682438314247    2.2274165729803825
H    3.886656513665028    -5.309439266407288    2.466098739727051
H    2.722635970769058    -3.4385389634341346    -0.6356625619915621
H    2.5554452275479154    -4.894410121124959    -1.5974906123141415
C    0.9113996088050946    -4.552812328409636    -0.26176949878720535
H    0.6665867082421001    -3.9927089661571316    0.642369382066857
H    0.31117926091597536    -4.139350208607967    -1.0733289464875069
H    0.5967383082807571    -5.588092195117236    -0.10573459942358862
H    4.301567924541921    -5.272766627403902    0.010431423886062626
C    -8.421947412212448    3.027182503520755    -0.3889616588052672
H    -8.719487114208267    4.079161728624368    -0.39301580501523087
H    -8.841702663306204    2.5661986403824093    0.5072631115314152
C    -6.902321512987427    2.902457021753332    -0.4185075656140665
H    -6.649322150873957    1.83773776945718    -0.4138797024310193
C    -6.330700686239254    3.5170520707832833    -1.6920433992859412
C    -6.280149014194896    3.5409881095658173    0.8190232834123355
H    -6.561618895149975    4.585034163295988    -1.7378535231138972
H    -5.245647577502089    3.408987549726433    -1.7338763956057925
H    -6.75123755752427    3.0475540469731666    -2.5834429221534223
H    -6.66440491421419    3.0889711367905863    1.736033952487186
H    -5.194169365135934    3.433881768295792    0.8192729706880804
H    -6.509304755910167    4.609755922829417    0.853993173167627
H    -8.87717556074673    2.549272894368697    -1.2584636471220412
O    0.1948746214699303    -0.34804943589222076    -2.9583493942411674
H    0.09784478527891526    -0.1079925805262375    -3.883448882719239
C    1.0903391099119155    -1.4448861162027298    -2.854384340894312
H    1.0741294656483826    -1.769117830415429    -1.8153394085101446
H    0.7861529585995313    -2.2833988784704338    -3.487405014839705
H    2.1154401095308426    -1.1593140539628104    -3.1078011417350373
C    8.910319576982277    2.8145501557694126    -1.916498078755428
C    9.355747943991762    1.9269626123150958    -0.9310920716320217
C    9.964925184734772    0.7195946995523217    -1.321179558807079
C    10.140673019220811    0.3746405462345678    -2.660199483137318
C    9.69224271061659    1.2682672437206701    -3.609415793064832
C    9.081702596287084    2.478944277070819    -3.2425163983803804
H    8.440191614461384    3.7503740967167634    -1.6400610991969593
H    10.611234060386625    -0.5578048930142178    -2.9451819105451036
H    9.813115345012505    1.0326088490180807    -4.658313665955989
H    8.743458885147978    3.1551188869633706    -4.016312449922761
C    9.338400404230935    1.956093772646798    0.5084740241093281
C    9.921140048102062    0.7976340648531944    0.9169980882960423
H    10.100854332670986    0.43904016123773537    1.9175094283861551
N    10.302675002783236    0.0433366033988854    -0.17454525599481116
H    10.754635811721272    -0.8508879775748691    -0.13429143948217376
C    8.787800592091864    3.048806660311106    1.362823467454153
H    9.29664333989345    3.9957458438103197    1.1718626765109175
H    7.724647277819946    3.205821585817947    1.168344440668105
H    8.903429349939717    2.813433712481959    2.4201945204912456
O    3.8752650847460464    -3.724195611901375    -3.8129998473235616
C    4.334965366438591    -2.927093430639324    -2.972022131752187
C    5.234400021048754    -3.5382226696306884    -1.8664298532141614
H    6.273339697069077    -3.2501440670447157    -2.052705277713653
H    4.9504937188817815    -3.1525732554981722    -0.8861354058175844
H    5.168279347870284    -4.625431375900834    -1.8624402165644418
O    4.176136456758627    -1.679711015309744    -2.907979781264183
