143
placed: aspartic glutamic isoleucine serine tryptophan aspartic phenylalanine leucine tyrosine serine
C    2.8035907241379308    -0.4830889310344828    0.31171544827586206
C    1.7467487241379311    -1.1601059310344828    0.919205448275862
C    0.4922377241379311    -0.5957459310344828    0.9020494482758621
C    0.23824372413793113    0.6453840689655173    0.3159804482758621
C    1.3068487241379312    1.3102510689655171    -0.2873885517241379
C    2.5812027241379307    0.7448800689655172    -0.2971815517241379
H    3.385087724137931    1.2793680689655171    -0.7846865517241379
C    -1.1168162758620688    1.2651360689655171    0.4203244482758621
O    -1.2606222758620689    2.4213810689655175    0.741730448275862
C    -2.313361275862069    0.40184506896551725    0.1452914482758621
C    -2.251433275862069    -0.7107779310344828    -0.6882195517241378
C    -3.534515275862069    0.7684500689655173    0.705222448275862
C    -3.394730275862069    -1.4473629310344829    -0.9568835517241381
H    -1.3101642758620689    -0.9932989310344829    -1.140039551724138
C    -4.671713275862069    0.02369006896551723    0.4503834482758621
H    -3.5719842758620692    1.6455220689655172    1.336883448275862
C    -4.603332275862068    -1.0852739310344828    -0.3828185517241379
H    -3.341309275862069    -2.3041529310344826    -1.615228551724138
H    -5.615068275862068    0.30802206896551726    0.8972854482758621
H    -5.494159275862069    -1.6648629310344827    -0.5867205517241378
H    1.933219724137931    -2.1131469310344824    1.391999448275862
O    4.004751724137932    -1.0934609310344827    0.3572304482758621
C    5.113187724137932    -0.45214493103448283    -0.22870755172413793
H    5.963530724137931    -1.1085179310344828    -0.06605955172413791
H    4.9706357241379315    -0.3100049310344828    -1.303546551724138
H    5.310409724137932    0.5144450689655172    0.24278844827586207
O    1.0733537241379312    2.4912180689655172    -0.8947645517241378
H    1.882667724137931    2.8245570689655173    -1.2809085517241379
H    -0.32650727586206885    -1.1222039310344827    1.3750634482758621
O    5.146744237261071    2.464813661221084    -1.27115346131508
C    4.504984758630917    3.5352670696663453    -1.2031470512645788
C    5.245870819815161    4.739636346130508    -0.6015640609723916
H    6.216508406418412    4.85842366056726    -1.084084071071623
H    4.664282450741371    5.654582368434958    -0.6950815854521727
H    5.434519223733137    4.537200960078071    0.45587573088093825
O    3.308782934803547    3.7238883787983834    -1.550872489959813
C    -2.606713735836563    -3.260598824388388    2.5044542324810983
C    -1.7991407221594296    -4.115269375087354    1.5382133171850285
C    -0.2712773990456708    -3.865318217178265    1.5901490702448575
O    0.16036076448297634    -3.2456010169028024    2.5925554621961573
O    0.38274860357130175    -4.310941532212161    0.6216807213095721
H    -2.326259134738841    -3.479003553705364    3.5346075941923294
H    -2.4006344012327965    -2.199343641807412    2.345577227554519
H    -3.684395323590094    -3.416628063085414    2.3888553431537773
H    -1.9492822491746036    -5.179285160149966    1.7464966241649647
H    -2.123267812567399    -3.963231637457522    0.506642554620972
C    3.726934630407457    -4.047908538199601    -3.153918884429938
H    2.8025216983910215    -4.365488569383929    -2.6605543019158824
C    4.796837147604915    -3.783788447773827    -2.1002857423891976
C    3.4285974315040346    -2.8394299520761335    -4.038944649413299
H    5.742518290418091    -3.4962967560573053    -2.567401875376323
H    4.4969185243429415    -2.991813107168333    -1.4127511247081654
H    4.984962635821996    -4.674464718574784    -1.500572823154966
H    4.367258843487079    -2.479546535117041    -4.472628612529052
H    2.8072119339931123    -3.1575919813594147    -4.879829988985592
C    2.729058479697    -1.7023206313498886    -3.3029503462011682
H    3.329223294369808    -1.3304008369854232    -2.471216855286889
H    2.5290299440032444    -0.8581889956192517    -3.965252183836185
H    1.7756444651491086    -2.0367725480963483    -2.8862043750567867
H    4.044603276889318    -4.880907086256553    -3.7862180223413224
O    -6.508791318229472    2.5898232877801712    -0.6737286379592129
H    -5.6171352937454895    2.268640419886937    -0.5062541080700216
C    -7.2580780039856245    1.5501960958922774    -1.2779213545358197
H    -6.719279023269295    1.0837728379155103    -2.106664374914417
H    -7.540062348557826    0.7720280296249701    -0.5595832856760355
H    -8.172603915624034    1.9945812551430384    -1.6668861682603888
C    -6.270184062442015    -3.7900460092059363    0.9725589924157519
C    -7.462888321390824    -3.630244745618404    0.2560788551756118
C    -8.672413359354946    -3.5034634991743268    0.9653304735662755
C    -8.718164217589631    -3.497616498496527    2.360292643590802
C    -7.525316854270244    -3.631857897823992    3.0382859437359624
C    -6.3104401273978405    -3.7913167521588518    2.3495941650904686
H    -5.327379429037799    -3.9050287009747584    0.45179031570971295
H    -9.655542842701632    -3.3947854799121893    2.8923066533192956
H    -7.526173438669544    -3.6162211349741984    4.121122988288702
H    -5.396678612761425    -3.9199239360971045    2.9144475432720123
C    -7.776823047589589    -3.5864258876284563    -1.149918945259995
C    -9.129560390402242    -3.454579461575495    -1.2284860394015331
H    -9.767809226033076    -3.394963317662652    -2.096256841978661
N    -9.678093157996168    -3.398610243873512    0.03614042221916327
H    -10.660244862958924    -3.3774317002797023    0.23631242324793372
C    -6.796830853340427    -3.6310931816865715    -2.283525777752457
H    -6.675275936679206    -2.649729694093448    -2.747820333702663
H    -5.812385408347185    -3.943193364765604    -1.9318468879107087
H    -7.101431988569606    -4.3326959122865505    -3.060513269750069
O    -0.0007993149803398186    -2.398574723928293    -1.9741091024763837
C    -0.006126815673623878    -3.2970520570900756    -1.096929100842964
C    1.0577326157620415    -4.398577605658972    -1.272345142754937
H    2.0470788231752057    -3.9378653476963463    -1.3137341854350109
H    1.0142060534467652    -5.123976349644858    -0.46038304919351347
H    0.8956903994478523    -4.900295623677694    -2.2282370321881038
O    -0.7662548705552275    -3.392873908981172    -0.1055487971770091
C    7.636495546232833    -5.42272309815374    0.9044904832692945
C    6.526302342182741    -4.727537227701106    0.45103080455782707
C    6.661521815676508    -3.778720277140655    -0.5534388297855068
C    7.905712295807275    -3.502785622547974    -1.113026399697148
C    9.013371908921059    -4.207198956783127    -0.6467440745953226
C    8.882432349086931    -5.1608858272532965    0.3514677983126017
H    7.530934356157245    -6.168131912014057    1.6814727796953923
H    5.551293469149688    -4.921784303847038    0.8793734522180049
H    5.784848965197277    -3.2442061220146154    -0.9025005268519002
H    9.991348974869226    -4.0024737076243895    -1.0682271369319005
H    9.753176730864922    -5.699615460551792    0.7051937846541737
C    8.05790698145654    -2.4690030508918355    -2.1969582492189
H    8.069692264805202    -2.931124682662831    -3.186635093143242
H    7.2308125908299985    -1.759376728576273    -2.17928296970326
H    8.99063253517278    -1.914973279363924    -2.0820409899092054
C    -2.0381719005079386    5.360423039313892    -1.0178520411918819
H    -2.443628707920983    6.376202671108807    -1.0553864971561366
H    -1.4838493116086107    5.18111167269041    -1.9409709765262702
C    -3.167004952368079    4.352151956890413    -0.8410019576259137
H    -2.730652259788582    3.352411875285362    -0.8544561404280131
C    -3.8341706829171818    4.54950409270521    0.5137922955215001
C    -4.185593304054329    4.4439475916947355    -1.9716100507268453
H    -4.301995233429352    5.536568833670445    0.5679743213008251
H    -4.611202598290966    3.801612241502801    0.6876378566468773
H    -3.1031934967984016    4.476690990058865    1.3204091852661577
H    -3.722167145176233    4.248361573917089    -2.9407263760934317
H    -4.98879643587358    3.715491844469984    -1.8372853385678882
H    -4.638884010439489    5.439085248240383    -2.008599992338396
H    -1.336482859216533    5.302450970693354    -0.18403213783179628
C    7.244561432015037    3.082385075372951    0.46017636411258345
C    7.788526430825479    1.7337438154221907    0.8555954008483074
C    7.6053473230935165    1.2319021845093403    2.1418425322601027
C    8.110323916812876    -0.0016269136837391692    2.5200768923892936
C    8.818334507406155    -0.7665405214503593    1.6031038502341584
O    9.306521326438938    -1.9723576456525032    2.0200254782620437
C    9.007605011575277    -0.28926295618351755    0.31351184712929103
C    8.495643261555596    0.948020933460807    -0.04822517821133555
H    6.455994783857143    3.403424774948916    1.1414057866945866
H    6.832613287579976    3.0695599554193325    -0.5507543542119703
H    8.024345820009644    3.846355187513583    0.480625665251759
H    7.054943548166946    1.8182241354926123    2.8699730055056647
H    7.964033886804275    -0.38135131670854233    3.522000846110912
H    9.772357549299288    -2.4008663879878673    1.2944926522439177
H    9.557081698797127    -0.8793100814820041    -0.41127806938325845
H    8.65826506850064    1.3062272541285405    -1.0586474212072687
O    4.18109324438896    -4.951371078814236    1.4877918893812037
H    4.101218184235451    -4.302557511544935    2.1918778977393174
C    3.278458601485041    -4.600449383551319    0.4494399079952968
H    2.242062661508811    -4.564339224952592    0.7986264018399055
H    3.5337728532429162    -3.6412660178759846    -0.006420050882537873
H    3.3466851244121223    -5.377134772709362    -0.3084217642058739
