151
placed: arginine lysine aspartic glutamic isoleucine leucine serine tryptophan tyrosine
C    2.8035907241379308    -0.4830889310344828    0.31171544827586206
C    1.7467487241379311    -1.1601059310344828    0.919205448275862
C    0.4922377241379311    -0.5957459310344828    0.9020494482758621
C    0.23824372413793113    0.6453840689655173    0.3159804482758621
C    1.3068487241379312    1.3102510689655171    -0.2873885517241379
C    2.5812027241379307    0.7448800689655172    -0.2971815517241379
H    3.385087724137931    1.2793680689655171    -0.7846865517241379
C    -1.1168162758620688    1.2651360689655171    0.4203244482758621
O    -1.2606222758620689    2.4213810689655175    0.741730448275862
C    -2.313361275862069    0.40184506896551725    0.1452914482758621
C    -2.251433275862069    -0.7107779310344828    -0.6882195517241378
C    -3.534515275862069    0.7684500689655173    0.705222448275862
C    -3.394730275862069    -1.4473629310344829    -0.9568835517241381
H    -1.3101642758620689    -0.9932989310344829    -1.140039551724138
C    -4.671713275862069    0.02369006896551723    0.4503834482758621
H    -3.5719842758620692    1.6455220689655172    1.336883448275862
C    -4.603332275862068    -1.0852739310344828    -0.3828185517241379
H    -3.341309275862069    -2.3041529310344826    -1.615228551724138
H    -5.615068275862068    0.30802206896551726    0.8972854482758621
H    -5.494159275862069    -1.6648629310344827    -0.5867205517241378
H    1.933219724137931    -2.1131469310344824    1.391999448275862
O    4.004751724137932    -1.0934609310344827    0.3572304482758621
C    5.113187724137932    -0.45214493103448283    -0.22870755172413793
H    5.963530724137931    -1.1085179310344828    -0.06605955172413791
H    4.9706357241379315    -0.3100049310344828    -1.303546551724138
H    5.310409724137932    0.5144450689655172    0.24278844827586207
O    1.0733537241379312    2.4912180689655172    -0.8947645517241378
H    1.882667724137931    2.8245570689655173    -1.2809085517241379
H    -0.32650727586206885    -1.1222039310344827    1.3750634482758621
N    -3.207826463834045    5.512238044199815    -0.5577004944019077
H    -3.869405963582918    5.339822135947699    -1.2928703663193393
H    -3.5158100838772195    6.046960654375811    0.23427945931588776
C    -2.0201201717533177    4.902948249633008    -0.5453870506707316
N    -1.1207710820072398    5.21402335171038    0.3962356549490849
H    -0.5162635949398005    4.459446382014214    0.6979552028544044
H    -1.362404405398243    5.903933772117332    1.087683276619551
N    -1.6994960183568564    4.03176274215154    -1.4872542658199257
H    -0.8043379875559095    3.5694568014102295    -1.3655547832043726
C    -2.68754330744655    3.312975191979393    -2.2924508324421136
H    -3.3387959405579912    2.7296806690154467    -1.6329343816069848
H    -3.3030385981384356    4.028009895281353    -2.8447133076410918
C    -1.9933785271891231    2.3939971168846537    -3.28220760303692
H    -1.2891729798008336    1.7537502557813867    -2.7411727278974642
H    -1.4093430974043006    2.997532012863    -3.981036490175511
C    -3.0126950574166282    1.5379460603063382    -4.023399646220054
H    -2.543885173633196    0.9723812715967131    -4.827560228674102
H    -3.494345128691037    0.8292239759241649    -3.346978669355961
H    -3.7952042808457147    2.1572629885659693    -4.466517920167068
N    1.2381316806778326    -7.435004082378143    -0.12768164241718866
H    2.2083457483758324    -7.7527123388756936    -0.14619268863151746
H    0.6862262386576756    -8.124674962469111    0.38735305946081805
C    1.102349661889041    -6.0589040138573775    0.5008730888217385
H    1.6966353206288527    -5.3806559788284956    -0.1106533748247004
H    1.5563648816812055    -6.131222537740739    1.4878889808905005
C    -0.3550831372698473    -5.652105367145799    0.5675751858965205
H    -0.8011743774271218    -5.690650060086911    -0.43264016110862646
H    -0.9079408996407063    -6.357828761159694    1.198396251965183
C    -0.5093905525813989    -4.236370793647832    1.1249936226706805
H    -0.02865743885835768    -3.529781830155306    0.4421922494897155
H    0.020309826646370856    -4.162332285688254    2.0794666244252533
C    -1.975025709487516    -3.870478807475855    1.3148005920282515
H    -2.464354468655261    -4.5593885107878105    2.005025836734782
H    -2.0812873328722756    -2.8632487204792847    1.714834942353195
H    -2.5122664346298564    -3.8982696572791116    0.3667876044364093
H    0.8953741910876156    -7.42719011039123    -1.0898932460436068
O    5.146744237261071    2.464813661221084    -1.27115346131508
C    4.504984758630917    3.5352670696663453    -1.2031470512645788
C    5.245870819815161    4.739636346130508    -0.6015640609723916
H    6.216508406418412    4.85842366056726    -1.084084071071623
H    4.664282450741371    5.654582368434958    -0.6950815854521727
H    5.434519223733137    4.537200960078071    0.45587573088093825
O    3.308782934803547    3.7238883787983834    -1.550872489959813
C    9.854354938966523    -2.0801203843534526    -2.2180486586593884
C    9.792826948919398    -3.0445130185813154    -1.043219752323436
C    8.513306149875449    -2.925469221644909    -0.17610682043662013
O    7.793808995658905    -1.9135562683262521    -0.3834387777600558
O    8.338029333251232    -3.8406265814469407    0.6514847881642152
H    9.789295704358045    -1.0509322611060847    -1.866038591645165
H    10.777530486982084    -2.197522163886877    -2.7947694463991715
H    9.007157501963215    -2.23580413290926    -2.8880854020157143
H    9.870263582458131    -4.082785199034816    -1.374559279246789
H    10.640682515712387    -2.8809461889097983    -0.37012578268775725
C    3.726934630407457    -4.047908538199601    -3.153918884429938
H    2.8025216983910215    -4.365488569383929    -2.6605543019158824
C    4.796837147604915    -3.783788447773827    -2.1002857423891976
C    3.4285974315040346    -2.8394299520761335    -4.038944649413299
H    5.742518290418091    -3.4962967560573053    -2.567401875376323
H    4.4969185243429415    -2.991813107168333    -1.4127511247081654
H    4.984962635821996    -4.674464718574784    -1.500572823154966
H    4.367258843487079    -2.479546535117041    -4.472628612529052
H    2.8072119339931123    -3.1575919813594147    -4.879829988985592
C    2.729058479697    -1.7023206313498886    -3.3029503462011682
H    3.329223294369808    -1.3304008369854232    -2.471216855286889
H    2.5290299440032444    -0.8581889956192517    -3.965252183836185
H    1.7756444651491086    -2.0367725480963483    -2.8862043750567867
H    4.044603276889318    -4.880907086256553    -3.7862180223413224
C    -8.421947412212448    3.027182503520755    -0.3889616588052672
H    -8.719487114208267    4.079161728624368    -0.39301580501523087
H    -8.841702663306204    2.5661986403824093    0.5072631115314152
C    -6.902321512987427    2.902457021753332    -0.4185075656140665
H    -6.649322150873957    1.83773776945718    -0.4138797024310193
C    -6.330700686239254    3.5170520707832833    -1.6920433992859412
C    -6.280149014194896    3.5409881095658173    0.8190232834123355
H    -6.561618895149975    4.585034163295988    -1.7378535231138972
H    -5.245647577502089    3.408987549726433    -1.7338763956057925
H    -6.75123755752427    3.0475540469731666    -2.5834429221534223
H    -6.66440491421419    3.0889711367905863    1.736033952487186
H    -5.194169365135934    3.433881768295792    0.8192729706880804
H    -6.509304755910167    4.609755922829417    0.853993173167627
H    -8.87717556074673    2.549272894368697    -1.2584636471220412
O    -7.526367947101619    0.3903426894393478    -1.0724899195986495
H    -8.42935563620163    0.08891685973687753    -1.2029053008487818
C    -6.92696818551078    0.5943766655428906    -2.345246179902828
H    -5.952981595673631    1.0463784558388038    -2.170587696658967
H    -6.778958982353536    -0.348107380772123    -2.880567497127675
H    -7.518499550936212    1.268746336177617    -2.969564869545555
C    -6.270184062442015    -3.7900460092059363    0.9725589924157519
C    -7.462888321390824    -3.630244745618404    0.2560788551756118
C    -8.672413359354946    -3.5034634991743268    0.9653304735662755
C    -8.718164217589631    -3.497616498496527    2.360292643590802
C    -7.525316854270244    -3.631857897823992    3.0382859437359624
C    -6.3104401273978405    -3.7913167521588518    2.3495941650904686
H    -5.327379429037799    -3.9050287009747584    0.45179031570971295
H    -9.655542842701632    -3.3947854799121893    2.8923066533192956
H    -7.526173438669544    -3.6162211349741984    4.121122988288702
H    -5.396678612761425    -3.9199239360971045    2.9144475432720123
C    -7.776823047589589    -3.5864258876284563    -1.149918945259995
C    -9.129560390402242    -3.454579461575495    -1.2284860394015331
H    -9.767809226033076    -3.394963317662652    -2.096256841978661
N    -9.678093157996168    -3.398610243873512    0.03614042221916327
H    -10.660244862958924    -3.3774317002797023    0.23631242324793372
C    -6.796830853340427    -3.6310931816865715    -2.283525777752457
H    -6.675275936679206    -2.649729694093448    -2.747820333702663
H    -5.812385408347185    -3.943193364765604    -1.9318468879107087
H    -7.101431988569606    -4.3326959122865505    -3.060513269750069
C    7.244561432015037    3.082385075372951    0.46017636411258345
C    7.788526430825479    1.7337438154221907    0.8555954008483074
C    7.6053473230935165    1.2319021845093403    2.1418425322601027
C    8.110323916812876    -0.0016269136837391692    2.5200768923892936
C    8.818334507406155    -0.7665405214503593    1.6031038502341584
O    9.306521326438938    -1.9723576456525032    2.0200254782620437
C    9.007605011575277    -0.28926295618351755    0.31351184712929103
C    8.495643261555596    0.948020933460807    -0.04822517821133555
H    6.455994783857143    3.403424774948916    1.1414057866945866
H    6.832613287579976    3.0695599554193325    -0.5507543542119703
H    8.024345820009644    3.846355187513583    0.480625665251759
H    7.054943548166946    1.8182241354926123    2.8699730055056647
H    7.964033886804275    -0.38135131670854233    3.522000846110912
H    9.772357549299288    -2.4008663879878673    1.2944926522439177
H    9.557081698797127    -0.8793100814820041    -0.41127806938325845
H    8.65826506850064    1.3062272541285405    -1.0586474212072687
