162
placed: tryptophan tyrosine phenylalanine arginine lysine aspartic glutamic leucine serine glutamic
C    2.8035907241379308    -0.4830889310344828    0.31171544827586206
C    1.7467487241379311    -1.1601059310344828    0.919205448275862
C    0.4922377241379311    -0.5957459310344828    0.9020494482758621
C    0.23824372413793113    0.6453840689655173    0.3159804482758621
C    1.3068487241379312    1.3102510689655171    -0.2873885517241379
C    2.5812027241379307    0.7448800689655172    -0.2971815517241379
H    3.385087724137931    1.2793680689655171    -0.7846865517241379
C    -1.1168162758620688    1.2651360689655171    0.4203244482758621
O    -1.2606222758620689    2.4213810689655175    0.741730448275862
C    -2.313361275862069    0.40184506896551725    0.1452914482758621
C    -2.251433275862069    -0.7107779310344828    -0.6882195517241378
C    -3.534515275862069    0.7684500689655173    0.705222448275862
C    -3.394730275862069    -1.4473629310344829    -0.9568835517241381
H    -1.3101642758620689    -0.9932989310344829    -1.140039551724138
C    -4.671713275862069    0.02369006896551723    0.4503834482758621
H    -3.5719842758620692    1.6455220689655172    1.336883448275862
C    -4.603332275862068    -1.0852739310344828    -0.3828185517241379
H    -3.341309275862069    -2.3041529310344826    -1.615228551724138
H    -5.615068275862068    0.30802206896551726    0.8972854482758621
H    -5.494159275862069    -1.6648629310344827    -0.5867205517241378
H    1.933219724137931    -2.1131469310344824    1.391999448275862
O    4.004751724137932    -1.0934609310344827    0.3572304482758621
C    5.113187724137932    -0.45214493103448283    -0.22870755172413793
H    5.963530724137931    -1.1085179310344828    -0.06605955172413791
H    4.9706357241379315    -0.3100049310344828    -1.303546551724138
H    5.310409724137932    0.5144450689655172    0.24278844827586207
O    1.0733537241379312    2.4912180689655172    -0.8947645517241378
H    1.882667724137931    2.8245570689655173    -1.2809085517241379
H    -0.32650727586206885    -1.1222039310344827    1.3750634482758621
C    -1.0458087974500563    -4.727181699492804    0.7486026372361906
C    0.35016788246708846    -4.639809177548158    0.6736729202192122
C    0.957456967382484    -4.461601268652531    -0.584851927079951
C    0.21694928139491046    -4.38403298652978    -1.764446075502705
C    -1.1540917497825358    -4.4917873432897215    -1.660421887908561
C    -1.7830112607475879    -4.656142669210334    -0.4145605469704131
H    -1.540637414325972    -4.861900066183793    1.7033728093693115
H    0.6952292940088117    -4.2524659899672645    -2.7276978187824255
H    -1.7586226548050774    -4.456193773901171    -2.5584940703526957
H    -2.862611116909886    -4.731192586964191    -0.3739133880430185
C    1.4040022087708606    -4.697650255128779    1.6552579153890852
C    2.569001108779517    -4.5597728329126515    0.9657395684968986
H    3.581063592702407    -4.535577057216889    1.3360995048723858
N    2.3142867890558896    -4.417063561821135    -0.3813945221329552
H    3.006982648037426    -4.260695812705904    -1.0884881487977698
C    1.2374939552082878    -4.830756549999007    3.134686039112588
H    0.6214161855327822    -4.019896467507708    3.5320676359360608
H    0.7523594799535334    -5.770364213758054    3.410842611533915
H    2.2024382977079697    -4.789684749345168    3.6409737712537216
C    4.9602169125259    3.3257057201847786    1.4015284171679314
C    4.848928640594017    3.5099357152406094    -0.0868721789574312
C    3.8179395329550063    4.263040611330053    -0.642218741113743
C    3.671482329702307    4.401967693165128    -2.0153951565367323
C    4.573137366161315    3.776609105142023    -2.866849287780212
O    4.406771124167376    3.95527435045572    -4.208285118805964
C    5.609097847409733    3.0178893850243016    -2.3359628814665183
C    5.744689544928832    2.900748169805027    -0.960370013588977
H    4.326890098828838    4.034687018036303    1.9320049384585765
H    5.985281169168983    3.46452601431169    1.7458474615987638
H    4.639431192298373    2.3223113950251264    1.6939358046595743
H    3.1048829443881574    4.751784578950097    0.011461623667496226
H    2.878333906588335    5.005536259838028    -2.4376826573343364
H    5.132683619846164    3.5352702526484054    -4.680037445154894
H    6.315473118505766    2.5268404776749827    -2.997410844553615
H    6.569801313792072    2.318467690173076    -0.5640785750413434
C    -3.0044378481357636    5.145014905855749    -1.2253417502658421
C    -2.058266794654762    5.748278891656381    -0.4064746003808788
C    -2.128865744790206    5.5965242134464415    0.9687227733007665
C    -3.144066304675667    4.844262057803531    1.5527224742543602
C    -4.096092840927279    4.265249160945029    0.7238510585986254
C    -4.026287982497534    4.402442500275115    -0.6555256337622569
H    -2.9494763036683542    5.260535122769036    -2.3001921123647513
H    -1.2568402220941175    6.3319883227702505    -0.8439178760687923
H    -1.3765711880023794    6.054116397395146    1.602342703887008
H    -4.899914682153837    3.6866798814294794    1.1650542894591216
H    -4.770382510370983    3.9279510434353235    -1.284220379583971
C    -3.164440666857428    4.61456846076083    3.0385627404523765
H    -2.399580000640401    3.885725341220535    3.3148171288317414
H    -2.9551600635959407    5.534344166164589    3.585678745593857
H    -4.128372613630973    4.228472891502545    3.369983391143472
N    6.1459958252698055    -1.3418926953641486    3.1440759639790823
H    7.108560654082961    -1.5446257098312859    2.9412684179187774
H    5.940901293251277    -0.48227939693813154    3.624106037959016
C    5.188046077280639    -2.2476174262512547    2.936251697189202
N    4.003155986489957    -2.089923955971392    3.535988476809569
H    3.1788679508512514    -2.491629384182327    3.122912353672016
H    3.8545088391296423    -1.3218235561622025    4.167169299334381
N    5.407761590373608    -3.307070788292543    2.1767799162660197
H    4.683592809185952    -4.009181055861839    2.154941512144549
C    6.533609170207867    -3.500368783703833    1.2552329917949125
H    7.032945646239503    -2.5407504162349257    1.1143308253820858
H    7.2542901494628484    -4.189343708783841    1.7000251310211034
C    6.0405291924712845    -4.0207281238981    -0.08873544678355724
H    5.267978588738747    -3.345125104575237    -0.4619433926952273
H    5.565706532410679    -4.994879893748296    0.06029716295556262
C    7.174493190051817    -4.140933424884089    -1.0999360678732504
H    6.799834535146327    -4.52348902954541    -2.0480955366677853
H    7.634629746652868    -3.1695143116851994    -1.295633994956819
H    7.951011228005678    -4.823352976777425    -0.7525947564665632
N    -8.979325646390484    -1.9307241895271399    -1.3307368579126944
H    -9.271192159511754    -2.8319711098002305    -1.710943129794311
H    -9.728149359911791    -1.254521643846895    -1.4982653976831588
C    -8.662824347750522    -2.003088663121471    0.15202331427910998
H    -7.769549974309208    -2.618970292352403    0.2513454535516076
H    -9.499570285404374    -2.514984749343966    0.6251138632431341
C    -8.465021266190606    -0.599969878125463    0.6851073499188616
H    -7.737658561667366    -0.07349013341942214    0.05686889911219249
H    -9.408981073032459    -0.04860475843367216    0.6138925637972021
C    -7.96981969240673    -0.5914453246150142    2.1298725430467065
H    -6.976356597739238    -1.0475799866330893    2.165606471032896
H    -8.619808618313977    -1.2139650344950654    2.7497333118136775
C    -7.932287296386901    0.8273560457627614    2.6848324599376427
H    -8.938785055064159    1.2427969354148434    2.7517745947812235
H    -7.493761243022337    0.8499080440000624    3.6803181847980126
H    -7.3424314746613435    1.4879575427937457    2.0464598845623065
H    -8.16154131742405    -1.614828379114894    -1.8569204471776817
O    -4.920826281439654    -2.492476875519977    2.7653856781295754
C    -5.7109487941357315    -2.864134598700052    1.872097984179265
C    -5.363376263310313    -4.211438853124358    1.1898129887357098
H    -5.654121746412211    -5.032450864774303    1.8519748239103655
H    -5.897309921806807    -4.32747657302237    0.2443966335120007
H    -4.2849240204662715    -4.285564749271822    1.0307752310963465
O    -6.740849629075091    -2.282146077004953    1.4517302718129956
C    9.854354938966523    -2.0801203843534526    -2.2180486586593884
C    9.792826948919398    -3.0445130185813154    -1.043219752323436
C    8.513306149875449    -2.925469221644909    -0.17610682043662013
O    7.793808995658905    -1.9135562683262521    -0.3834387777600558
O    8.338029333251232    -3.8406265814469407    0.6514847881642152
H    9.789295704358045    -1.0509322611060847    -1.866038591645165
H    10.777530486982084    -2.197522163886877    -2.7947694463991715
H    9.007157501963215    -2.23580413290926    -2.8880854020157143
H    9.870263582458131    -4.082785199034816    -1.374559279246789
H    10.640682515712387    -2.8809461889097983    -0.37012578268775725
C    9.919183350386534    1.2881689608231155    -0.184224528591447
H    9.314460479757752    0.51043742853868    -0.6591580157512946
H    10.95784359429694    0.9546913021922218    -0.189978179283871
C    9.417486505347686    1.5628983179470786    1.229872224462205
H    10.083128684008916    2.2995812021438025    1.6916572827075274
C    8.013291280676297    2.156314858888984    1.1887728139672429
C    9.450012571840423    0.2987516706929413    2.083867544681321
H    7.337067070334171    1.4892532506797127    0.6478413783470724
H    7.6103841570081014    2.297220419271434    2.192616165488627
H    8.00268544001659    3.1219199592954356    0.6804507907443441
H    10.462929522509036    -0.0960956831223161    2.1793580620851905
H    9.072524064073827    0.491123060391213    3.0891888992487453
H    8.825344957896316    -0.48399474140918675    1.644405932849614
H    9.852210474213878    2.1807361010479256    -0.808046094688997
O    -2.99137389453849    3.4776802858987783    -1.3060124790982444
H    -2.5166315411625066    3.279313379515519    -0.4863317553768392
C    -2.1527439619720887    3.1241020314330528    -2.386396686269361
H    -2.682253546092082    3.381788631422487    -3.3022490093295316
H    -1.2013910218464317    3.6651748704084315    -2.3605576497743583
H    -1.9365984280089084    2.0483297082879184    -2.4090679450925663
C    0.9040108852348709    -1.9640357860808357    -2.569767439271708
C    1.9154955356797523    -1.9719312917157452    -3.704961159327752
C    2.559642281335256    -3.3578347553418366    -3.9909385169699045
O    2.338916089665951    -4.257289765667179    -3.149985437529457
O    3.244433195461828    -3.411088822615309    -5.036766263673518
H    0.07211233632698735    -2.6365166277036023    -2.7945035609115583
H    1.359055965128286    -2.322492540355734    -1.6465867278795332
H    0.5048839262078924    -0.9569086368953927    -2.402594432697335
H    1.4616065838079628    -1.617339155311849    -4.633820748386161
H    2.7375337989243507    -1.2788019585899832    -3.490601156109327
