44
ligand global minimum: conformer 18 of 20, MMFF-ranked, UMA-relaxed at fmax 0.01; -557162.371 kcal/mol-equivalent
C    -3.828906172965624    -1.297308840569102    3.5616054177456693
C    -4.350315735376234    -0.9983285961052444    2.1621603883889704
C    -3.4343597127054535    -0.05956459749568961    1.3870121113703477
C    -3.96140217161224    0.2521972845111131    -0.007446733889203628
C    -3.102120718277271    1.2237032293334484    -0.7973462441704446
C    -3.680443495209762    1.5512252686799732    -2.1622644346065147
C    -2.851678846954402    2.5687493972581663    -2.934386875500164
O    -1.8053163771243863    0.6198811613716161    -1.0247359751887324
C    -0.7735611930006854    1.0270588067840896    -0.2612620147228067
O    -0.8578270195275766    1.8651197119565353    0.603626859149561
C    0.45918346571860463    0.3035108119195929    -0.6356798932012679
C    1.5798561002718983    0.505170833758835    0.05615272561146237
C    2.8843701855383563    -0.11646766142944374    -0.17304147155879912
C    3.8958067530416955    0.07338007332428052    0.7602093999496532
C    5.153934766790173    -0.4956185396052675    0.6058994750459112
C    5.414842781786469    -1.2681222648488222    -0.5181209559186482
O    6.6045715438341235    -1.8635937058745733    -0.7814874326153233
C    7.657294365212386    -1.662340534821477    0.14334590761390492
C    4.412469154606524    -1.4663399250761753    -1.4714891685519635
C    3.1713000579366177    -0.89974395056336    -1.298659193340197
H    -3.740423254275955    -0.3806604873276715    4.1482238564096665
H    -2.8391900483980415    -1.7564081029386487    3.5173409998596266
H    -4.48983385477161    -1.977276264887645    4.100225953592698
H    -5.349875658052302    -0.5566685905095091    2.226962144251296
H    -4.464860997002308    -1.9326244369911876    1.603406817636067
H    -2.440118936007842    -0.5107545028353261    1.3143290512019066
H    -3.3024825229897856    0.8730137817854571    1.9439647731319771
H    -4.061731322781251    -0.6732568112539394    -0.5845107504000812
H    -4.964137585820487    0.6848359296183346    0.07024038355781498
H    -2.945019227304793    2.1385017949736493    -0.2228825282121358
H    -3.773791640431709    0.6235292799130664    -2.7341535364141776
H    -4.694130692073728    1.9309131301797797    -2.009891735981349
H    -1.8416029453359934    2.197565050487659    -3.1080851120848396
H    -2.7725872569113075    3.5080163432809566    -2.3836486264637022
H    -3.2994512743223434    2.785024153100036    -3.9044317440719323
H    0.3879595925216574    -0.3855194085661005    -1.466500703020123
H    1.5202881575546057    1.203057847302079    0.8865965730343559
H    3.6965494996223245    0.6783921486885603    1.636858307883223
H    5.9092065268597835    -0.32703007050563193    1.358926216012119
H    7.406225168897947    -2.0692650730545674    1.126083932473022
H    7.900407024457554    -0.601492515825428    0.24068953511277227
H    8.515922620018301    -2.1927092152008663    -0.2577842949997093
H    4.641273383387166    -2.066033460702512    -2.3422646919562755
H    2.4137084557991098    -1.0557179729811594    -2.055859126216145
