44
s2_esm1_f4: ligand in its bound pose, the reference for ligand strain
C    3.091    -6.32    5.072
C    3.58    -5.419    6.195
C    3.36    -3.98    5.856
C    3.472    -3.042    7.014
C    3.316    -1.659    6.452
C    4.057    -0.598    7.242
C    3.64    0.808    6.95
O    1.997    -1.252    6.284
C    0.874    -1.623    6.885
O    0.818    -1.857    8.07
C    -0.312    -1.678    5.974
C    -1.187    -2.685    6.078
C    -2.367    -2.849    5.196
C    -3.317    -3.799    5.501
C    -4.43    -3.988    4.695
C    -4.614    -3.222    3.561
O    -5.689    -3.371    2.739
C    -6.728    -4.27    3.083
C    -3.662    -2.27    3.257
C    -2.545    -2.086    4.063
H    3.2849004819318783    -7.3741522980608325    5.270624142360393
H    2.0161585239329094    -6.2031072161539145    4.922695185206736
H    3.5783636108271035    -6.069903312378316    4.12708258874944
H    3.042211810811522    -5.668699284971769    7.116412587685552
H    4.638800741312242    -5.601055552657092    6.402020075409559
H    4.072353742911493    -3.6832562463937166    5.0786084250481
H    2.3660682801505875    -3.8669540961520887    5.402603785125144
H    2.7322378562130507    -3.239468097108738    7.789478061326557
H    4.462565765650992    -3.1187475635493023    7.473163152851516
H    3.7140927879987804    -1.6422028170844771    5.433750930536938
H    3.926203100458967    -0.8036546590527991    8.312643205553556
H    5.124450779276023    -0.7321210176676617    7.038814980520009
H    2.6484177043311248    1.0329955366123087    7.3528722707422975
H    4.333642253917931    1.533211666459464    7.3800658738964335
H    3.592875148014587    1.0003643266741997    5.872295914012975
H    -0.3411203526969807    -0.9484995702675887    5.173419795579299
H    -1.0596516022287832    -3.4078451501945985    6.8780106940282115
H    -3.1842040374635405    -4.43163266777278    6.371753823150125
H    -5.143029378337387    -4.755460167053398    4.962229174486769
H    -7.190561033822964    -3.9975337928449486    4.035601865808958
H    -7.458666625673949    -4.186403644564998    2.2841941795213314
H    -6.367190001406688    -5.299629979164728    3.129397915143061
H    -3.7877071703543916    -1.6746330398543205    2.3581414391614772
H    -1.8308569890440105    -1.328451180143623    3.7803545762904296
