44
s2_esm2_f4: ligand relaxed free, 68 steps, converged=True; against _ligand_bound.xyz this is the strain
C    -3.1020402384986028    -17.879794100118318    -0.9801853868963456
C    -4.4936415218193035    -18.022196728887103    -0.3702740987107478
C    -4.838439057517876    -16.963999341917066    0.6773271205020066
C    -6.329396106886141    -16.95022751907095    0.9813691371250797
C    -6.766742045994445    -16.051870531741276    2.1231656778135637
C    -8.28082204106316    -16.039367836111893    2.2964476580138307
C    -8.839264575937943    -17.436676608933364    2.5511700055510595
O    -6.194326904577259    -14.73703198502603    1.8712070337338498
C    -6.2481573661517995    -13.843786320380184    2.87652601647216
O    -7.070083744618819    -13.858559419176645    3.760536046448543
C    -5.154765632869629    -12.853198496021244    2.8994029430775434
C    -3.9254427626075326    -13.074520124922655    2.4369741775990574
C    -2.758155452880745    -12.23671625659354    2.746178499961322
C    -1.5513421504378657    -12.435563055563732    2.0874763208131775
C    -0.4258439841669961    -11.666404763731597    2.372042131347046
C    -0.5066132182383627    -10.679496582179443    3.3470515981845153
O    0.5128167991069915    -9.865380599981982    3.716143909088195
C    1.71055890758474    -9.930566311887096    2.9700017036740416
C    -1.701536396675889    -10.486775333656105    4.042197901967158
C    -2.8004443517154267    -11.255467751412555    3.746921872336994
H    -2.315108252933919    -17.884295036493207    -0.22066850607472566
H    -2.9052511605620888    -18.703257298708326    -1.6686540204558031
H    -3.014958091764483    -16.95083476098389    -1.5496407904359153
H    -5.2377236270178615    -17.985241825720543    -1.1737497715359626
H    -4.594694599215817    -19.013137736315542    0.08456635411592554
H    -4.287714851170124    -17.170558906044803    1.6004250017432418
H    -4.525070072488181    -15.97389915345557    0.3376480009944636
H    -6.88617899036707    -16.673786908173753    0.08029007662556167
H    -6.644428451115927    -17.963510935545617    1.2429669709883184
H    -6.3069525733971386    -16.396399507985812    3.0557217962872008
H    -8.522862778311305    -15.40084241316059    3.1391162387884903
H    -8.747496495918822    -15.605522190516474    1.4072383751217405
H    -8.297496168883582    -17.941936986819442    3.355434988134333
H    -9.881590106865405    -17.369371770092407    2.8594081604894104
H    -8.797160325417503    -18.07031820308877    1.6655348191381913
H    -5.381172414109137    -11.994410010014136    3.5175471012190838
H    -3.754309454608673    -13.953684115241012    1.822693038913265
H    -1.4823914678739956    -13.214188505411789    1.335827355549032
H    0.49865990752955985    -11.857379853817841    1.8462904419963835
H    2.3580441839547577    -9.157257016810892    3.3722864360031517
H    2.1981758086788017    -10.90049413262541    3.0798399235676865
H    1.5210715728493813    -9.742482009180275    1.9114341581900713
H    -1.7406198223219242    -9.730715834461188    4.815813062165608
H    -3.700148934931718    -11.113733930517363    4.32959350768324
