44
s2_esm2_f8: ligand in its bound pose, the reference for ligand strain
C    -5.088    16.216    1.152
C    -5.501    14.761    1.303
C    -4.67    13.986    2.287
C    -4.753    14.5    3.688
C    -5.13    13.502    4.743
C    -4.544    13.923    6.069
C    -5.044    15.297    6.545
O    -4.743    12.227    4.317
C    -3.819    11.379    4.816
O    -3.023    11.707    5.646
C    -3.843    10.015    4.216
C    -3.009    9.034    4.674
C    -2.935    7.678    4.069
C    -2.04    6.747    4.554
C    -1.929    5.485    3.989
C    -2.724    5.118    2.928
O    -2.652    3.888    2.339
C    -1.491    3.092    2.525
C    -3.632    6.035    2.444
C    -3.735    7.313    3.01
H    -5.180550122085147    16.77174466232972    2.0864051162307518
H    -4.050043913329123    16.289031693479775    0.8232575852265804
H    -5.702722425592006    16.722133905516873    0.40983263600127173
H    -6.557547030123086    14.717795114006108    1.6043911631490486
H    -5.43999519429075    14.283233659553227    0.3190890931690252
H    -4.9566171890432535    12.929935984595552    2.2460077887188605
H    -3.6293554352580166    13.992239269824353    1.951442017822649
H    -3.797635803955102    14.948695379430196    3.971189474006806
H    -5.47297471711355    15.319542542081274    3.7467401648556047
H    -6.2229318799464615    13.496824919776897    4.7715059824325925
H    -4.764591911087199    13.180814077640303    6.846953310234294
H    -3.46200424272113    13.945315595051415    5.981031106936947
H    -4.664866386422052    15.50371280691864    7.543713608655439
H    -4.701469675868133    16.098708478982903    5.893650335811877
H    -6.135664275167306    15.34595337807568    6.587154973813128
H    -4.520415534286402    9.852407895721377    3.3882352611746613
H    -2.340041451388508    9.27946978575868    5.491653004223298
H    -1.3988156012505129    7.006747685974503    5.389620000583125
H    -1.2046644098493653    4.790259037643376    4.396799124638916
H    -1.2962371992374775    2.8895606232838933    3.5808988299124183
H    -1.6826748323749203    2.1522088132501884    2.0129225592163036
H    -0.6149390862264743    3.5764926903845033    2.0855314188051173
H    -4.242309151121756    5.767098863509316    1.592518016205187
H    -4.423357064731106    8.013157511189718    2.5555828113977883
