44
s2_esm2_f12: ligand in its bound pose, the reference for ligand strain
C    7.609    -1.967    2.142
C    6.153    -1.658    2.401
C    5.232    -2.506    1.57
C    5.192    -3.929    2.047
C    3.885    -4.615    1.745
C    3.942    -6.086    2.099
C    3.812    -6.363    3.594
O    3.618    -4.518    0.371
C    2.428    -4.061    -0.016
O    1.608    -3.747    0.796
C    2.195    -3.972    -1.464
C    1.068    -3.378    -1.87
C    0.739    -3.213    -3.293
C    0.428    -1.972    -3.77
C    0.091    -1.784    -5.086
C    0.063    -2.84    -5.946
O    -0.257    -2.687    -7.26
C    -1.047    -1.561    -7.628
C    0.385    -4.089    -5.479
C    0.715    -4.277    -4.145
H    8.275706267308957    -1.3222212883370128    2.7188605763818456
H    7.855980414545594    -3.000132796106368    2.39828314843478
H    7.84557139310972    -1.8290248644974998    1.0831877501261236
H    5.916060711585362    -1.7910324696226883    3.461563043106383
H    5.975703353859823    -0.5989987535993532    2.1798078879235194
H    4.2166619796167675    -2.0929794104728763    1.6370487334735875
H    5.506625461941964    -2.4531840825497846    0.5135556951020339
H    6.01030101970052    -4.512356652818885    1.6140522713532752
H    5.330335635191225    -3.96048697587066    3.1325655158576993
H    3.076687030673785    -4.1289040269254365    2.293969988923226
H    3.1182452356537396    -6.584410848989855    1.5815499891590443
H    4.865051029284984    -6.516755156457568    1.703227232301733
H    4.626863129251676    -5.916283991194004    4.167475540002612
H    2.8733128632739517    -5.958614755009038    3.978854724231618
H    3.820150715206985    -7.4338297748708735    3.7938735724057335
H    2.931947354540962    -4.366060067528511    -2.1498973941069
H    0.41303827556299766    -2.952078293169332    -1.1167632447806088
H    0.4477365027169374    -1.1203778025890385    -3.0986614354116027
H    -0.21870119384348571    -0.7959767374402615    -5.41393746942946
H    -1.9270086794335368    -1.4649606345790482    -6.989010142005583
H    -0.4892639389860543    -0.6231444608368434    -7.555944056097072
H    -1.3506411854004325    -1.7324051738738824    -8.657469494011677
H    0.34015498659231175    -4.930151948360971    -6.158939138254878
H    0.9236573188674054    -5.275480634270912    -3.7805759809616117
