44
s2_esm1_f12: ligand relaxed free at fmax 0.01, 128 steps, converged=True
C    3.4965935315122376    4.822520754856651    2.4476525421536612
C    2.1328216555578376    5.451732885895563    2.7017456127544555
C    0.9969800628137828    4.443320612354484    2.585585828297702
C    -0.37023764306846696    5.057507293210614    2.8589139918272437
C    -1.5215494988519815    4.0778113842290455    2.684724522438242
C    -2.8795631491921947    4.667271400227327    3.0345645953611395
C    -4.019647029965376    3.6670769664911504    2.89933636011247
O    -1.2590141961990386    2.8250060325673627    3.3724025771015453
C    -1.0687777133880088    2.830000172023428    4.700026905565702
O    -1.2821876298442385    3.779781926520138    5.417213322330382
C    -0.5381448161434587    1.5497058794373646    5.210953770218096
C    -0.09532667485393911    0.5692564403999432    4.4236659398426195
C    0.5199133543885144    -0.6890523480202294    4.853156638664066
C    0.6157825523919397    -1.0742930597386484    6.187015517413686
C    1.2365944272973366    -2.256575624869182    6.557080370757689
C    1.7800931037620364    -3.085202367013556    5.578321291228413
O    2.4155485945769652    -4.255893323556143    5.835411407305974
C    2.5608033270802744    -4.641738902675099    7.190018125436968
C    1.6834471580913963    -2.722970120979428    4.236562135375011
C    1.0601849757333195    -1.543485050559232    3.8875027092995547
H    3.695315088433975    4.021363201661088    3.1624999352612764
H    3.545590565710633    4.3893807012187525    1.4463663141856
H    4.3008389295422615    5.553805106886065    2.5340138187134906
H    2.111597802927158    5.898474953538236    3.700330338943834
H    1.9665684375638512    6.271016733175593    1.9953586032772637
H    1.0058599498659162    3.996473666787686    1.5844411927273006
H    1.1802816208052582    3.6225820251963214    3.286114271032428
H    -0.3979631243394599    5.478776711244263    3.865028871418464
H    -0.5473899014166833    5.8822690897523175    2.160996804744732
H    -1.5443557753661115    3.7451960711416494    1.642911489749493
H    -2.847256828427752    5.077262707778515    4.043222087943221
H    -3.037091575853725    5.505731393523887    2.3497434591556856
H    -3.9110817056026663    2.848182968579195    3.610907221883006
H    -4.980565071750169    4.146370377219436    3.0868858404407633
H    -4.0493756642745184    3.2340108714533344    1.8968327688741415
H    -0.47799851166764246    1.5076498073047375    6.290335464365664
H    -0.16988977012193074    0.7138178562681763    3.3508996595632428
H    0.19781471973938852    -0.44616314857991235    6.963110827727321
H    1.2897317243115662    -2.5200076727002245    7.602888402865367
H    3.1314467498754426    -3.8998264295124594    7.754087933249128
H    1.5893214142774732    -4.792656523220917    7.666947877922006
H    3.1049159108683284    -5.581534912103677    7.178596359291574
H    2.107118545950984    -3.3800366720421082    3.4891208428558897
H    0.992773166531746    -1.265926820366752    2.8419788963764354
