44
s2_esm1_control: ligand relaxed free at fmax 0.01, 188 steps, converged=True
C    -3.8596544698996196    8.851789115059294    3.60898440983885
C    -2.340073728406375    8.867356088666915    3.710031874198328
C    -1.801436316053903    7.812613514114596    4.6694528179135055
C    -0.2852102163212481    7.914177013845071    4.824368429633856
C    0.3907764979074591    6.843450358025136    5.681852969198912
C    0.8212106743166957    5.5788073263353155    4.948199658392341
C    -0.28702776572268573    4.815963160721586    4.232988850539699
O    -0.5297859481089592    6.498188051786125    6.742701399375166
C    0.0020731970081395525    6.079768251766806    7.90482289153814
O    1.1892440753576636    6.037543566132534    8.124301551190872
C    -1.0180628437220307    5.672278471318782    8.891200590440912
C    -2.320160910126458    5.601761371537505    8.61457325674792
C    -3.388616119837647    5.176469098875808    9.521343881776936
C    -3.1802670841285736    4.909653162765572    10.88075115936835
C    -4.213060208440033    4.497281671256178    11.689538625567774
C    -5.497059299553778    4.333079450906595    11.163067638459989
O    -6.44383550894283    3.916345806738013    12.040228211491629
C    -7.753548527747213    3.7122747078441054    11.543040937611385
C    -5.7297420768808625    4.59713636701757    9.819798308306048
C    -4.674330692053038    5.018269018454248    9.019740900040512
H    -4.316096570189177    9.050882831518596    4.580834493038593
H    -4.221899468356857    9.606500962806038    2.9102207501295876
H    -4.221064294550682    7.879911814509276    3.2662426520876733
H    -1.9023821327886117    8.712925896207889    2.7187130941448787
H    -2.005345487979295    9.856306897954438    4.038811869542602
H    -2.2692602628399494    7.942939956685605    5.648370796035356
H    -2.096097254502309    6.820495517515993    4.320421702918377
H    0.18810226063155633    7.897004396113229    3.8369536615214717
H    -0.060136032351080865    8.895777591304709    5.251101940086241
H    1.2797851546037244    7.266866026080606    6.148725571359739
H    1.5972078510754428    5.867525027534947    4.233702712630614
H    1.3073245758188228    4.930572289386905    5.679950243781073
H    -1.1103857342123977    4.5904737933126105    4.9124463436813075
H    -0.6875540146237771    5.378233476784056    3.3883977463008894
H    0.09324412363384132    3.869689610695609    3.846958961359549
H    -0.6063447099324956    5.401871946538509    9.854181809883746
H    -2.637293824396472    5.869976956874279    7.6119870946051265
H    -2.1955747733066486    5.032461410474778    11.312282817391013
H    -4.057786970837396    4.292909315270546    12.74051377816559
H    -8.351754037426602    3.392690137367226    12.391376767987786
H    -8.171082953322092    4.635274968838486    11.133273763843755
H    -7.768249800855347    2.934561943880416    10.775065926409107
H    -6.71190365015117    4.4796971760897    9.386456507186658
H    -4.859647934346444    5.2235028278178035    7.971907912270302
