44
s2_esm1_f8: ligand in its bound pose, the reference for ligand strain
C    3.451    -1.524    1.711
C    4.263    -0.282    1.925
C    5.058    0.141    0.698
C    6.098    -0.816    0.323
C    6.911    -0.919    -0.922
C    7.829    0.23    -1.218
C    8.407    0.222    -2.595
O    6.151    -1.116    -2.052
C    4.985    -0.946    -2.592
O    4.161    -0.222    -2.101
C    4.772    -1.66    -3.866
C    3.596    -1.572    -4.472
C    3.308    -2.196    -5.766
C    4.26    -2.859    -6.494
C    3.947    -3.411    -7.715
C    2.676    -3.313    -8.221
O    2.325    -3.838    -9.411
C    3.321    -4.358    -10.282
C    1.715    -2.651    -7.487
C    2.028    -2.089    -6.266
H    2.8470731353031264    -1.7479911263778094    2.5915053319291057
H    2.7715675604361687    -1.3889606244792656    0.8687921714150125
H    4.060236365575129    -2.407731572524848    1.5168800724294258
H    3.595804501792886    0.5400024722161036    2.1966385796895223
H    4.93485578813632    -0.4183717797219557    2.7810708698507165
H    4.358970659995779    0.3016239814788308    -0.12016658114704751
H    5.502888104268618    1.1262166490512464    0.9020004510484175
H    6.8414219516209345    -0.8433039186285415    1.1363825772961624
H    5.639752057030468    -1.8114740259623743    0.3899290883500633
H    7.515658682128592    -1.8270689216488702    -0.8314511621694352
H    7.27811795443974    1.1643194143083704    -1.0511739792959853
H    8.626340580253427    0.21361999039074317    -0.4686403494623601
H    9.342339941885749    0.784218461231368    -2.62616978220677
H    8.647230262423813    -0.7977602557290746    -2.9217216650290783
H    7.690744435322739    0.6114925171089896    -3.3269017337975253
H    5.6013987117786606    -2.2371098749617433    -4.251523915383831
H    2.812916361883948    -0.9877008323588052    -3.997784650793161
H    5.273501021375965    -2.955222573079811    -6.129355853539678
H    4.72590633255468    -3.9176689061582453    -8.265737884423501
H    3.9764652581363467    -5.059809092789718    -9.762008090812689
H    2.834035110946137    -4.903980185207393    -11.067005202412695
H    3.927066040414008    -3.548173408270042    -10.69883434193764
H    0.7095344521302873    -2.581734188509434    -7.886418304633927
H    1.2779759035532843    -1.561652247669308    -5.691134811668805
