44
s2_esm1_control: ligand relaxed free, 22 steps, converged=True; against _ligand_bound.xyz this is the strain
C    -3.9080917554576247    8.811175961170534    4.071442719336178
C    -2.3870213869528594    8.862032196482708    4.0723479694091145
C    -1.7601006341340952    7.6574858309012015    4.7616141948936335
C    -0.2480318160390242    7.803121975375748    4.906079021599318
C    0.46739026856181887    6.643431462821403    5.610808401942123
C    1.0175574306277184    5.5580123790869145    4.692213691651476
C    0.031305712686115095    4.89829136573629    3.7357097883474117
O    -0.4501015804398929    6.059158422084067    6.572044193806042
C    -0.06421705560590203    6.004423437451479    7.8612720032019014
O    1.0461016435650827    6.278836141422582    8.24911649186864
C    -1.1515011730205253    5.6025000184648865    8.776196111911638
C    -2.4334253064254234    5.471407122881358    8.437637645083658
C    -3.512073719321842    5.172556881872666    9.391388795877432
C    -3.3712218456625904    5.374766839309116    10.772575329685905
C    -4.389644971002992    5.074097860471925    11.648491395445303
C    -5.593051725129881    4.551131896257149    11.16798691518769
O    -6.534141390958539    4.290226100908399    12.1101242121901
C    -7.781788364760538    3.7901383935211093    11.667445906395404
C    -5.761886806381019    4.3474065342688935    9.80228962782278
C    -4.722908724591148    4.668124068991365    8.933113207287459
H    -4.293944929047725    8.77684039312944    5.092258415404746
H    -4.3340591487347915    9.686691283974366    3.5815498868687015
H    -4.271698221218236    7.922096570690373    3.5531303724291092
H    -2.0137928421391997    8.930072579167463    3.0459058092567832
H    -2.0532706245090977    9.772183324722064    4.580385539120541
H    -2.196910147722883    7.547362528250499    5.757449805252168
H    -2.006926905941467    6.742868651569203    4.215143476262269
H    0.21197570538834953    7.945330645583649    3.920566886244294
H    -0.050557061659297145    8.72326800529713    5.464665938035326
H    1.308280848947179    7.043563848856974    6.173112322081373
H    1.8310582381474125    6.010449899043668    4.114929086858761
H    1.4826390904318114    4.803686944239635    5.330978323626069
H    -0.8019982057763126    4.447799441997946    4.276666059635045
H    -0.372392338053626    5.61266390871731    3.0155718785221937
H    0.5340504954554475    4.1145090589286655    3.1658917290207773
H    -0.8288339181450701    5.464574296505309    9.798657695582055
H    -2.7191014116234946    5.594619993409851    7.395725576283466
H    -2.4555644642377574    5.802723727850541    11.159706756055765
H    -4.29646018648885    5.253069423113507    12.71344390295269
H    -8.385404923574383    3.666051032406023    12.561717195499686
H    -8.273156017124636    4.495037418939702    10.990525988432937
H    -7.664030833963679    2.823123476759302    11.171043161502608
H    -6.685513353807584    3.950741402595387    9.402987435747482
H    -4.860298508769576    4.515605675487262    7.8679783304633535
