44
s2_esm1_control: ligand in its bound pose, the reference for ligand strain
C    -3.884    8.808    4.098
C    -2.363    8.868    4.082
C    -1.727    7.66    4.751
C    -0.23    7.765    4.873
C    0.466    6.607    5.56
C    1.103    5.615    4.609
C    0.099    4.903    3.681
O    -0.451    5.957    6.451
C    -0.116    5.986    7.797
O    0.965    6.357    8.119
C    -1.147    5.582    8.795
C    -2.449    5.526    8.481
C    -3.535    5.185    9.463
C    -3.394    5.403    10.827
C    -4.433    5.08    11.708
C    -5.628    4.543    11.239
O    -6.615    4.246    12.133
C    -7.874    3.76    11.679
C    -5.764    4.336    9.878
C    -4.727    4.657    9.004
H    -4.260322711886989    8.768599775254552    5.1225032789997975
H    -4.327456618961665    9.678400130786692    3.6131867464980534
H    -4.246729801926183    7.916892242657392    3.5805779584166246
H    -2.0052751996219174    8.948946896589563    3.0500231557703206
H    -2.027146890179033    9.776995945614743    4.591651731300792
H    -2.159197854466288    7.553637538382779    5.750030465504402
H    -2.010907567727333    6.751244093499605    4.209835556762794
H    0.21528537088666805    7.895428438760162    3.880435789712973
H    -0.006112876332108719    8.686689312380118    5.420051825817429
H    1.2731542140983654    7.006954904737384    6.169009390082129
H    1.8497971252775363    6.156740283112474    4.022113052822741
H    1.6450879484076768    4.873090584088629    5.199047475906552
H    -0.7490043518635219    4.534384617471912    4.25464944788913
H    -0.2825914533886209    5.576266777041848    2.9099624147125396
H    0.5608940387202573    4.047308354921064    3.184502096295978
H    -0.7580801516856629    5.417086169965018    9.790008427377876
H    -2.7491452154904708    5.689453433979672    7.450941708908069
H    -2.491013419997271    5.846526651326691    11.226343082741215
H    -4.322912653693121    5.259317690766817    12.770013042251012
H    -8.479586649662236    3.6432248616725293    12.572420029015609
H    -8.351381086757753    4.472206812284487    11.002037363598491
H    -7.768584090367259    2.793721624612815    11.179930689461925
H    -6.676930765340792    3.9234942522226883    9.471275988481768
H    -4.870602335960725    4.502647119060939    7.941338338290474
