44
s2_esm2_control: ligand relaxed free at fmax 0.01, 177 steps, converged=True
C    -6.035675612987122    -4.313154484031903    7.155845544772137
C    -6.15130598766051    -2.8093091626260476    7.368161512461331
C    -5.342146682880083    -2.0121303066926735    6.352780551811463
C    -5.480260534157174    -0.5069276218966158    6.542306004765963
C    -4.702415645847172    0.3111325804332826    5.5259530211384655
C    -4.824599673462025    1.808784340546626    5.737276663300776
C    -3.993548499046814    2.61759914087471    4.750390917696966
O    -5.240336033591216    0.013702759124711528    4.214175579984936
C    -4.491345997958523    -0.7258048434289898    3.373142639246985
O    -3.365898486222065    -1.0931239002841198    3.6083104321365043
C    -5.251048311248606    -1.0285503666439835    2.1426693891681894
C    -4.711757644710593    -1.8060221810477268    1.2044581687716707
C    -5.335943410194967    -2.243125012945791    -0.04555437596011617
C    -4.5632211125934194    -2.9208111213835934    -0.99384235703243
C    -5.1048270200517845    -3.355871800593239    -2.1849071557371853
C    -6.452906376129951    -3.132513922515862    -2.4567675316910327
O    -6.906967311626389    -3.6041218157186705    -3.644857991207693
C    -8.280862408050837    -3.430168443244579    -3.9387354477925753
C    -7.24352458292843    -2.4644784991146795    -1.5250177257349051
C    -6.679976402336441    -2.0286846325400067    -0.3364556396890252
H    -6.629022722697851    -4.869648606475565    7.882342452640127
H    -6.3802208457933745    -4.592126781314829    6.1579541593153175
H    -4.998578924620238    -4.641579553832628    7.248074781956666
H    -7.201613796344613    -2.5078157288072944    7.303851088520475
H    -5.820759563411479    -2.552453853312553    8.379537894272225
H    -4.28625319137278    -2.2942688345511453    6.417210067430981
H    -5.669881047428473    -2.286882767747188    5.345402902082878
H    -6.536135249156515    -0.22031575140840767    6.487512944952044
H    -5.128948494274034    -0.22920583351900428    7.54120469394389
H    -3.651911843642099    0.015640575374986924    5.5275347207320245
H    -5.879570317014874    2.088817623792825    5.6660077637299615
H    -4.5072995418996715    2.025437929672046    6.760667726715954
H    -2.9359902087614307    2.3569609081343526    4.823772370087362
H    -4.3124929924086635    2.429266668935288    3.7248087509558605
H    -4.091088473832356    3.6866004608434935    4.940228659605018
H    -6.244869355052979    -0.6079691912076733    2.0685970501233575
H    -3.700114686692742    -2.1578294123327812    1.386270528209781
H    -3.5155481607831067    -3.105094964282432    -0.786642203041842
H    -4.507023516618875    -3.8780184134966964    -2.919727765199062
H    -8.91033192143306    -3.9335225523020525    -3.200367332429027
H    -8.546397214258683    -2.3710282891017407    -3.9814992168399974
H    -8.438767929942712    -3.8806274317850464    -4.914312944375591
H    -8.292170903357697    -2.284598177679433    -1.709287117020229
H    -7.31394496351306    -1.5229958073083358    0.3806211353407721
