44
s2_esm1_f12: ligand relaxed free, 44 steps, converged=True; against _ligand_bound.xyz this is the strain
C    3.5589735662691906    4.8487215300476105    2.373048807414789
C    2.1721431718414195    5.383871959857228    2.6961557441243666
C    1.0767773260672397    4.322512284637224    2.6943142589036198
C    -0.2885982717993953    4.9630085250046285    2.9262100396025814
C    -1.473782016061509    4.048818272767216    2.675214504461393
C    -2.8196090574581483    4.7229902146901965    2.9199198927118264
C    -3.9691357444886184    3.7293098063960874    2.9867880979040935
O    -1.3087239733828253    2.793304706429214    3.3807495195449784
C    -1.3428354054628235    2.7541143687542275    4.720709757515947
O    -1.7196611559020645    3.6623111067001886    5.424645219260916
C    -0.8396413104147161    1.4674959362871738    5.250169345121548
C    -0.21436662673569268    0.5765149609774569    4.4783599201720214
C    0.4407575729393147    -0.6650759320421578    4.892505129940428
C    0.562317597408824    -1.0737919313292186    6.2166757426341315
C    1.230933738887548    -2.2397343214602095    6.555401534276792
C    1.7941775587773028    -3.024812675502632    5.552280860610716
O    2.479030839313184    -4.174131965542822    5.769556976213559
C    2.666735532369575    -4.604054082957345    7.105770035251411
C    1.675949448723516    -2.635821871301582    4.2199567943262855
C    1.0108652730873562    -1.4726636452243884    3.9044973457615213
H    3.8968552402212437    4.154528068687468    3.1446010883670477
H    3.556376056800902    4.321274346044736    1.4164657433205015
H    4.286098416074617    5.659239442801416    2.2993764217648844
H    2.181545494033897    5.888154744303416    3.667804884846025
H    1.90134985703725    6.151970691685088    1.9673272112149887
H    1.0751355842734518    3.7924302817730062    1.7338415128974858
H    1.285323715475204    3.565466412609155    3.4578918404237684
H    -0.3477155961373168    5.368863779733833    3.9389958549360213
H    -0.3939774348893317    5.8096311275261945    2.2394072840143227
H    -1.434225447055226    3.699838506333086    1.638979230101029
H    -2.7731337106685134    5.320450355033502    3.8308255675067886
H    -2.977796949863236    5.411481648574225    2.0846010830841144
H    -3.964895623579938    3.1936749434008904    3.934959515643109
H    -4.928262987513706    4.239034168094093    2.905668456291361
H    -3.892254638953315    2.9958876134088634    2.180710909787391
H    -0.9500168588442386    1.3495657565778194    6.320935423799187
H    -0.1607939624713537    0.7863065662019856    3.4144176605508636
H    0.1403910119927028    -0.47179145385759497    7.010848328134567
H    1.3102304633343345    -2.5136466817557395    7.5967940176926225
H    3.2384810130936685    -3.869684028677989    7.681221101343143
H    1.7080284489411135    -4.789483182928774    7.598549888082743
H    3.230562863348179    -5.532658153707721    7.039345555618063
H    2.1140918996001856    -3.258727039359369    3.4527188625221035
H    0.9268164080831522    -1.1767020513808018    2.86625584919428
