44
s2_esm2_f12: ligand relaxed free, 30 steps, converged=True; against _ligand_bound.xyz this is the strain
C    7.647206623049477    -1.9729515603434868    2.140394207169268
C    6.189127859662998    -1.593513169179679    2.369328346657016
C    5.1718234397755785    -2.4823416413406214    1.654046085911989
C    5.235897378245575    -3.963369377267186    2.0398311537823637
C    3.9124782352509695    -4.66983514676562    1.7835431810214775
C    3.907438439363847    -6.152090958556858    2.1264729582641584
C    3.850315432281492    -6.407924668188452    3.6285008611884604
O    3.594407511757282    -4.53256813880345    0.3729551697264367
C    2.365149387201847    -4.072924288406521    0.06696992498309709
O    1.5493901806380657    -3.7261586621857528    0.8863731350832298
C    2.150470873151688    -4.034671824514153    -1.3983491027900516
C    1.141910775540862    -3.316835595384922    -1.8882504465044676
C    0.7730977187973443    -3.1700508607396225    -3.302191564396949
C    0.3228720263568183    -1.938687713019941    -3.7638939264519604
C    -0.06385881213215332    -1.7469179761240836    -5.084174983491761
C    -0.03119131829061223    -2.8233208090423023    -5.9643519608292905
O    -0.42497807349301014    -2.7636280008775236    -7.264964097965104
C    -1.0352002844119421    -1.5685789543574375    -7.721206769893771
C    0.4211318382712866    -4.066544200707997    -5.5172759006421
C    0.8287354429219767    -4.231337877743464    -4.209703305335664
H    8.313652597316086    -1.3232093140805559    2.709107317481533
H    7.8572059417108875    -3.000331149029441    2.4408168999293043
H    7.918636191849147    -1.875660110927095    1.0887690512517025
H    5.9764133010182094    -1.6146933808945416    3.4414808265834607
H    6.041012607673726    -0.5559198486683105    2.0567061640645052
H    4.166841243094875    -2.1121808771447688    1.8821642407059898
H    5.2868668622345885    -2.388322402384706    0.5709723928661478
H    6.040402579814523    -4.474897323465424    1.4992918869844996
H    5.459747633235356    -4.054790316913235    3.110209823706575
H    3.123784789768404    -4.162766961391402    2.3418184334021275
H    3.033034905952101    -6.605323558605192    1.6547257778374822
H    4.785183436175379    -6.628642984265108    1.6812161390528026
H    4.704800380683116    -5.980575340225955    4.155033483073829
H    2.942533192099173    -5.975068033930625    4.052806495675172
H    3.834208285925679    -7.477426504544116    3.83772751244153
H    2.858083192557772    -4.563132758314737    -2.023647949969144
H    0.5227175045795267    -2.7797358935107446    -1.1753402181936499
H    0.28311283054587144    -1.1039873022075855    -3.074397099557851
H    -0.4002269852059    -0.7715558047238632    -5.4070862110717215
H    -1.9087622213588558    -1.3137672332513042    -7.117076392966358
H    -0.33899646495556723    -0.7267116100588039    -7.707541010476623
H    -1.3534161187478508    -1.7534796894901057    -8.744714033125671
H    0.42772573311858336    -4.900110278765268    -6.206999158453089
H    1.162389611238864    -5.206311467878541    -3.875420083239375
