44
s2_esm2_f8: ligand relaxed free, 51 steps, converged=True; against _ligand_bound.xyz this is the strain
C    -4.940598231702532    16.144008466262058    1.1989488120273244
C    -5.595792765958708    14.790839182105053    1.4647251529662135
C    -4.709024831244898    13.81854688214977    2.243838410041996
C    -4.352956620322168    14.26285085464285    3.6733725197453553
C    -5.093299753390833    13.513384139068545    4.775921771070831
C    -4.686191517927034    13.940220999007453    6.18439024405463
C    -5.333597181701044    15.254409051783297    6.618671596917947
O    -4.991024846318487    12.075453753908025    4.571209591551575
C    -3.7901130427795904    11.472816870495132    4.630775438702107
O    -2.775409334024752    12.00030767217031    5.018895811477249
C    -3.8881911002742293    10.079249819677345    4.139865821350576
C    -2.9361448979624853    9.187223117424693    4.412079965989239
C    -2.892939196180323    7.80290154922577    3.9302926614826648
C    -1.922025816843572    6.927786867663139    4.3991185465326925
C    -1.8021370674701191    5.634832157030582    3.9014651410792442
C    -2.654373687417438    5.206981542930088    2.893643039497146
O    -2.5759683725904803    4.003638765865791    2.2741058297716448
C    -1.571018161580698    3.100475655226007    2.6959876162228937
C    -3.6646320703274577    6.057861471116768    2.4420699822488894
C    -3.780644940555196    7.3251273313586855    2.9583830474502992
H    -4.831233601573244    16.74539855908588    2.1026079032913905
H    -3.9434589599262955    16.01599968490647    0.7721481350558986
H    -5.526348931035921    16.732504377355625    0.4916501888130465
H    -6.543608083136658    14.938055178755313    1.992561871399212
H    -5.853075129820609    14.34076342637709    0.5009648570418945
H    -5.199595840115769    12.845109008850123    2.2778241191645274
H    -3.7905849175971302    13.664399519059618    1.6734124207421455
H    -3.286618410594484    14.141986408567726    3.860043286523713
H    -4.576991234121165    15.324427397228584    3.8012629425975146
H    -6.170184074279575    13.671660277017056    4.675588765714295
H    -4.987486259381096    13.155509497580077    6.881270953306534
H    -3.6012159704440116    14.012835257004776    6.244017964950102
H    -5.103922055839712    15.454210016327027    7.667560333895943
H    -4.980024995119437    16.107237196892672    6.034604820230377
H    -6.421521471475408    15.20945130515247    6.523989332172954
H    -4.764773318354074    9.826346348395614    3.5577300148914723
H    -2.100576938679296    9.513433603810265    5.025414604843068
H    -1.2292156271258665    7.265193971300499    5.1611180164014705
H    -1.0400925720813028    4.985269964652697    4.30019436081266
H    -1.7741105466749771    2.7290998855871353    3.7031840059700825
H    -1.6040642552861082    2.27391384244431    1.9936159867738623
H    -0.5772227437750033    3.552562780005245    2.6668396000351895
H    -4.341587641012044    5.705670035554436    1.6768653532009072
H    -4.563827040769737    7.966131047576742    2.577894874158994
