44
s2_esm1_f4: ligand relaxed free, 37 steps, converged=True; against _ligand_bound.xyz this is the strain
C    3.114892422209087    -6.479587921262552    5.089576707494349
C    3.4579030672937576    -5.462538973272836    6.168475920786123
C    3.248275262803237    -4.019049229427406    5.732611531864087
C    3.7002754804002556    -3.016152423487351    6.790797463282035
C    3.4234724882891294    -1.5672727904189985    6.410668614356144
C    3.7737705650750932    -0.5586350958461251    7.4880331738090735
C    3.53149232723127    0.877519949979904    7.033975319557542
O    2.0736280795558035    -1.369536896803976    5.924730111194821
C    1.0322704529280085    -1.7627645955542042    6.677661262989123
O    1.1054271225648975    -2.1274995361785636    7.826276918849327
C    -0.18928396872957273    -1.7329298280038088    5.850598215983449
C    -1.2180318134692314    -2.5337439692519155    6.122435802565322
C    -2.3901687114260786    -2.734397227013231    5.2655055236507335
C    -3.329484018527971    -3.7022310507414637    5.593437905330358
C    -4.430729428799959    -3.9609945002518865    4.784637803574176
C    -4.60241561196766    -3.225909181599987    3.6198129355748074
O    -5.633332503041293    -3.3758834570364367    2.7528885892770005
C    -6.65670505076512    -4.289212586576934    3.0961954284422144
C    -3.6711686437963644    -2.244750259318185    3.274462611104219
C    -2.589960061324029    -2.0042864270766825    4.086586482187818
H    3.3310252418040105    -7.491180668137737    5.430613870434074
H    2.0588172659207955    -6.438399906118034    4.818484258174382
H    3.6914999674213256    -6.30100918892065    4.1808697854937025
H    2.844892970961342    -5.647580543002636    7.054278418503816
H    4.49835389684984    -5.593450100222894    6.48139117977117
H    3.793810443453329    -3.831682953391548    4.800506099594247
H    2.1914807849768723    -3.8612209293175486    5.49991574347646
H    3.2504911848371556    -3.2465321385729977    7.758224228274412
H    4.785256137887358    -3.09203376015926    6.911296958061912
H    4.013424380570601    -1.332473708443447    5.518945696906499
H    3.204791904860492    -0.7850140087918844    8.391612537218334
H    4.832184417917987    -0.7144165701371725    7.71596509361864
H    2.4788298740526145    1.1478634390918094    7.110684723671028
H    4.110126075183591    1.5762068471777126    7.635799223555472
H    3.816601184426253    1.0161605895091317    5.98825721111625
H    -0.12774586317171055    -1.1321431935908302    4.954374711155623
H    -1.1616778041516354    -3.1288107277879997    7.031047730390313
H    -3.202189541223655    -4.275124150536323    6.503920174454193
H    -5.129729996097285    -4.731233540067175    5.074263342739087
H    -7.089412246913996    -4.046390781355901    4.069761625491263
H    -7.4184972303013685    -4.183957023512538    2.329278591662617
H    -6.2843818025316125    -5.316831533964559    3.102349440327528
H    -3.8294308860403525    -1.6918118127560495    2.358492055484845
H    -1.8842922856984428    -1.2359175654344823    3.80353325640992
