44
s2_esm1_f8: ligand relaxed free, 38 steps, converged=True; against _ligand_bound.xyz this is the strain
C    3.3715912995699426    -1.39594930460565    1.8161089061781206
C    4.360892318768812    -0.25587827550909487    2.023690038786623
C    5.2166030674772585    0.060350476567160694    0.7979540113264342
C    6.1183049049270775    -1.1072965481964288    0.40651393112646916
C    6.89003033836986    -1.0076347065608435    -0.9056907548275084
C    7.47594134011697    0.353733530907838    -1.229177875946767
C    8.307500405048744    0.3329366322346889    -2.50908801114101
O    6.174313015152623    -1.5850698426994767    -2.0290035470999297
C    5.195096777627318    -0.9403335982367539    -2.681398993954139
O    4.686951109417269    0.10043522131109138    -2.3396548867242664
C    4.862842984284602    -1.7038137434489762    -3.9007089466666995
C    3.725117872309163    -1.5219162249661902    -4.565499884128021
C    3.362693062728941    -2.1875355027233145    -5.820955323741845
C    4.309829389745826    -2.8377973438354527    -6.604651013320491
C    3.977302944217406    -3.4126814771527187    -7.820513595063752
C    2.6662380168763002    -3.3353727762348844    -8.282905763502553
O    2.2450969886459022    -3.831457255461709    -9.473224246516295
C    3.2225573919889685    -4.418500676883114    -10.310780938405637
C    1.7019167949942549    -2.6954464558789306    -7.508160154069289
C    2.051736287848196    -2.130068765637837    -6.299367607462222
H    2.68641803211519    -1.477559632058043    2.658743306955558
H    2.7770796048279496    -1.2377400141371007    0.9158850418306679
H    3.8697116173079804    -2.358879341899048    1.7139601450671176
H    3.8134161318190145    0.6465532944939736    2.2967976976326474
H    5.003014742001795    -0.4854782083461774    2.8789057352122605
H    4.577433842603063    0.3391220126935945    -0.04183024375909757
H    5.844031508514509    0.9307174549255673    1.0171343929730479
H    6.8647453062998425    -1.2509344021645772    1.19734964588275
H    5.550769256736521    -2.0384344606027085    0.3573958037711095
H    7.725732578349682    -1.7071690880091865    -0.8351568439481838
H    6.6898964764860755    1.1036312729544213    -1.3010175855371287
H    8.096624857663132    0.6184505364110632    -0.3679893187247521
H    8.981492627982252    1.188333615465498    -2.551068092962567
H    8.911428442455298    -0.5763421253442617    -2.5793160072943584
H    7.666578973234726    0.3713182383593597    -3.39186357101121
H    5.603638004117945    -2.4280156756036195    -4.204708604208375
H    3.011421261389926    -0.8156005856795787    -4.153102257898159
H    5.341030233041669    -2.8707259614674405    -6.277317966551343
H    4.748471064103091    -3.8968754441197544    -8.399541401227482
H    3.638794939075122    -5.323204386242956    -9.859834320289576
H    2.707099134941183    -4.6733506623438545    -11.230679372822976
H    4.031422808180821    -3.7172199081323996    -10.533069569368937
H    0.6893879210600719    -2.63475572198144    -7.881575471603347
H    1.3016052398618303    -1.619764391212456    -5.707415499294216
