44
s2_esm2_control: ligand in its bound pose, the reference for ligand strain
C    -6.068    -4.178    7.159
C    -5.959    -2.686    7.453
C    -5.398    -1.943    6.277
C    -5.366    -0.464    6.508
C    -4.746    0.32    5.377
C    -4.956    1.815    5.607
C    -3.671    2.621    5.682
O    -5.364    -0.038    4.153
C    -4.642    -0.673    3.207
O    -3.474    -0.905    3.372
C    -5.393    -1.071    1.989
C    -4.731    -1.751    1.011
C    -5.377    -2.238    -0.224
C    -4.589    -2.877    -1.164
C    -5.142    -3.368    -2.332
C    -6.483    -3.229    -2.578
O    -6.975    -3.731    -3.735
C    -8.374    -3.693    -3.986
C    -7.272    -2.596    -1.644
C    -6.716    -2.101    -0.471
H    -6.499015808376102    -4.735540416887779    7.990810676712591
H    -6.692937988339909    -4.351070387278436    6.281908627840568
H    -5.083856866163963    -4.602031495286662    6.940957654885844
H    -6.947820279383109    -2.2877712680108835    7.699854377834188
H    -5.330840021164753    -2.5169260540364076    8.335581054722665
H    -4.388826816449034    -2.3099309164900976    6.050031347513056
H    -5.9982456511707785    -2.1594461573372703    5.3892487483463665
H    -6.387949853535826    -0.10118985992566218    6.666463712374995
H    -4.804354275954634    -0.22574207730734588    7.419991806845486
H    -3.682820278801514    0.08470683405300188    5.294504147515913
H    -5.580531036477518    2.1894303392696655    4.793785678941952
H    -5.529336365792467    1.9654244390033844    6.524214335552663
H    -3.0543553465367257    2.2932491828125765    6.523108621406755
H    -3.0777106422609024    2.5018270878701867    4.774917819274551
H    -3.871729517979026    3.684347171506391    5.814413948496683
H    -6.439870147822111    -0.8139705149324962    1.9303369155617218
H    -3.6758311721676638    -1.9557579403890022    1.1599830192227296
H    -3.5211110071355    -2.950571655704195    -1.0012392975123843
H    -4.522146994801252    -3.838049033331351    -3.086291394836206
H    -8.92543623730455    -4.2673582163556185    -3.2381980306689315
H    -8.742512666081323    -2.665396332476991    -4.005067250843371
H    -8.50780325849338    -4.144722864166654    -4.962900101344099
H    -8.328894295304027    -2.4565184692711957    -1.816436372127415
H    -7.36756564985165    -1.6078282110643418    0.238112568709674
