44
s2_esm2_f8: ligand relaxed free at fmax 0.01, 313 steps, converged=True
C    -5.786352908831971    15.828206400557551    1.7033433067061274
C    -5.139623734187643    14.456914044293674    1.537482865724969
C    -3.8067379240499752    14.319084418944247    2.272961929354673
C    -3.8803405650666294    14.551452496702135    3.781687016251655
C    -4.89812181057008    13.671234020367764    4.495456123369706
C    -4.870786339566241    13.788224818277156    6.013673872802393
C    -5.411631895175893    15.130103990492524    6.495858755233538
O    -4.819591731237678    12.282082159986947    4.077623010600627
C    -3.701895702815974    11.577493301092238    4.319070469085647
O    -2.709358661700772    12.025291687058738    4.842394103861488
C    -3.871242907690472    10.181473271348278    3.861411320300557
C    -2.8911422459704195    9.297291566340146    4.041862632936506
C    -2.9042317627196605    7.878389075010128    3.6824180436194065
C    -1.7925881191085937    7.096543070352842    3.970611097838036
C    -1.748814897426858    5.740482759140147    3.6688058725157315
C    -2.8465003382686467    5.146034303152075    3.0608370499392232
O    -2.921956843699831    3.834613217206014    2.7231866401728113
C    -1.805137344252603    3.0158366171336235    3.0174217078432366
C    -3.973480048617498    5.915664436590495    2.7596010146705257
C    -3.9980882894249525    7.255703494818622    3.0666069401816807
H    -6.0723818199957424    16.02030129866037    2.7394504475753085
H    -5.099354822975049    16.622015716916735    1.4001626640421299
H    -6.687436783908181    15.916908197481597    1.095384431522838
H    -5.828910858350879    13.67830656241297    1.875827925491393
H    -4.970308438603882    14.265693939881862    0.47487471141419824
H    -3.39124697399584    13.32661983616298    2.0811280862872006
H    -3.0932166057749084    15.034202846019191    1.8524201141218488
H    -2.89660488116471    14.39929301613769    4.224979164700989
H    -4.164461162369768    15.588345797552543    3.9800492879041123
H    -5.900012579743295    13.941826985662697    4.153019018572871
H    -5.48562803810416    12.981113340057822    6.419952112099138
H    -3.8538921499635843    13.632475533326351    6.373238687492841
H    -5.44817909346856    15.160488108317267    7.584813804825353
H    -4.787463622315592    15.961539395615212    6.166527168160753
H    -6.42472175652986    15.303756325023599    6.125326222173906
H    -4.819253767130318    9.932805420176182    3.404815492535604
H    -1.9852188032087346    9.664054267692498    4.516121049746226
H    -0.9346706811613069    7.556276551096073    4.4469591575702365
H    -0.8649157453301937    5.1698850328918455    3.912688965701996
H    -1.6039161303015745    2.991113984038276    4.0912943514124285
H    -2.0655733317510983    2.017726938159031    2.677456834225408
H    -0.9123478098252633    3.357787365384927    2.4879137440783774
H    -4.817066793568795    5.43099942049387    2.2865627166348497
H    -4.883019302616954    7.830433932222499    2.826843930649349
