44
s2_esm2_f12: ligand relaxed free at fmax 0.01, 219 steps, converged=True
C    7.40760494933698    -2.1985282796734547    1.3657429016746863
C    6.208576674389323    -1.7572964833427873    2.198592467808675
C    4.922846356561187    -2.5130333270848606    1.8704581550607855
C    4.998743183977149    -4.00227881382479    2.189638987777266
C    3.689532007392014    -4.740881424729168    1.9707683693211253
C    3.7492541134193984    -6.220349413860414    2.3133558392381364
C    3.969311168442929    -6.481680439399856    3.798954997086725
O    3.351282350503674    -4.663447615161179    0.5644920084038261
C    2.3778741727550763    -3.809491456029398    0.19527627490659832
O    1.7661134955872153    -3.10457562179997    0.9612416506498034
C    2.1735090649802546    -3.8632038254890326    -1.267062681919346
C    1.2830536942734077    -3.053155019554701    -1.838338132744537
C    0.9458418177737062    -2.9648619816866524    -3.259265240685438
C    0.025603105241295235    -2.0116771447834196    -3.677383059844291
C    -0.3409696576707351    -1.8801875130782113    -5.01137950876658
C    0.22556937390282078    -2.725068296947012    -5.956343879799546
O    -0.05720984736290119    -2.6935174506584794    -7.282465980899175
C    -1.001070679676169    -1.737491978677683    -7.729518973540302
C    1.1539163623066906    -3.690120850112272    -5.556204627056421
C    1.5047003841050575    -3.804528383784537    -4.231534096300558
H    8.27519527405547    -1.5665866321807573    1.558329089310707
H    7.69823727288484    -3.2271490537379153    1.5833040123791577
H    7.1803000961008365    -2.1365910036793143    0.29897254952504526
H    6.436727848114118    -1.875185081181616    3.26303114892505
H    6.037682624669279    -0.6896963200397622    2.0398742483654995
H    4.087805385057908    -2.074940206544276    2.4231566992331968
H    4.690610542470445    -2.3765124260736252    0.8097403606631275
H    5.770352849849558    -4.489994481675848    1.5862210247822492
H    5.288421128333766    -4.126240543347946    3.23724345484692
H    2.8887295548533563    -4.257695737242914    2.533478253567491
H    2.807762075481831    -6.6732373139831855    1.9943791159908006
H    4.540243159255413    -6.689403903917316    1.7213897778797014
H    4.952971937435852    -6.147457953974429    4.129665351125322
H    3.2197026230777688    -5.965467605984825    4.402875899043382
H    3.89551403464425    -7.546910016728471    4.017361774740494
H    2.777345667165625    -4.571616155938682    -1.817729085087545
H    0.7457044663197331    -2.3805821725645067    -1.1759559029452291
H    -0.4192415733161062    -1.351002753835703    -2.942422376499452
H    -1.0607237182385718    -1.126174224710685    -5.293683906757411
H    -1.9785492642305675    -1.899375190109208    -7.267957981290508
H    -0.6636694542560254    -0.7193245278640679    -7.5193618730553
H    -1.0835629459860856    -1.8752216362288803    -8.803709788368542
H    1.5799794328333634    -4.33897956234513    -6.3097639899793085
H    2.2215563770137234    -4.562132818421569    -3.9427853087976854
