44
s2_esm2_control: ligand relaxed free, 11 steps, converged=True; against _ligand_bound.xyz this is the strain
C    -6.073800559622407    -4.210514973312692    7.172608479152817
C    -5.963767876039945    -2.721249263322514    7.457405920683157
C    -5.391155386119269    -1.9624944975393406    6.267979724447153
C    -5.386831351871916    -0.46142686095254726    6.4906683012686175
C    -4.762016320911146    0.3511410879081559    5.3683559862467565
C    -4.9631759236603425    1.855589487469938    5.58134215577568
C    -3.657751647222296    2.6343209567962553    5.667903683757294
O    -5.366469696851725    -0.03957711902976648    4.104505849628662
C    -4.584861781982181    -0.688175488593811    3.2127970985805563
O    -3.411348104605584    -0.9204171844621789    3.3812290345638822
C    -5.369408232251098    -1.0704257632998686    2.017023923171074
C    -4.771412859102702    -1.7355887883532923    1.0262497994999045
C    -5.380175538473488    -2.22105098098706    -0.21459953166424045
C    -4.589077327412404    -2.859687435921936    -1.1744454535085325
C    -5.135045403357835    -3.3489031028943663    -2.342414349595671
C    -6.5005392726981    -3.2196912040455574    -2.5831365191880264
O    -6.954222328405122    -3.746502192185496    -3.7481919493467957
C    -8.34904492780887    -3.693845818375762    -3.986604936452317
C    -7.307270128710742    -2.5863011372080047    -1.6418336152427326
C    -6.739992993085273    -2.0963273391996307    -0.47735166763244063
H    -6.500290774748128    -4.76546953194879    8.00769722283058
H    -6.704069481845558    -4.3809694408243685    6.298492966040329
H    -5.090797798846854    -4.631028948011305    6.9568724312347605
H    -6.950108183764893    -2.312789008002863    7.698036776779586
H    -5.338425230077587    -2.551540350278542    8.339514483394185
H    -4.377747264511835    -2.315548125762872    6.052271349838301
H    -5.988508225283673    -2.1879675913152794    5.37980407772064
H    -6.410609899906486    -0.11216848799336544    6.664691921944109
H    -4.8223378297828345    -0.2199782644505638    7.398014714164006
H    -3.700610049465239    0.1136300039249828    5.284690969016084
H    -5.586103656671737    2.2428368980794122    4.773389485713151
H    -5.5296762802811905    2.005607005595381    6.503004355220476
H    -3.052244506575524    2.2926661423389194    6.50881086550885
H    -3.060419161590478    2.5140800683607494    4.764375692848168
H    -3.8430752717708963    3.6980185563103722    5.81269383675064
H    -6.414208835657045    -0.7855796629242616    2.014464309649861
H    -3.7144324740941856    -1.9441285809796276    1.1660792890339742
H    -3.5264793502970133    -2.9798708334561157    -0.9979137371080783
H    -4.52230759762605    -3.850744414542352    -3.078168946983333
H    -8.897007168772955    -4.256904893806355    -3.226285537152925
H    -8.710089671298586    -2.662685323271413    -4.006521845454669
H    -8.509600463283235    -4.147180983572999    -4.960711183710069
H    -8.368501813145429    -2.4659611654456692    -1.7990118952230096
H    -7.3824835132859885    -1.612032257399906    0.24530906497180124
