44
s2_esm1_f12: ligand in its bound pose, the reference for ligand strain
C    3.447    4.857    2.307
C    2.095    5.492    2.616
C    1.016    4.458    2.795
C    -0.344    5.0    3.111
C    -1.396    3.992    2.704
C    -2.714    4.703    2.545
C    -3.974    4.05    2.918
O    -1.412    2.901    3.606
C    -1.488    2.646    4.937
O    -2.021    3.404    5.704
C    -0.871    1.345    5.369
C    -0.197    0.541    4.525
C    0.497    -0.735    4.905
C    0.636    -1.147    6.225
C    1.308    -2.333    6.537
C    1.848    -3.131    5.535
O    2.513    -4.295    5.792
C    2.74    -4.723    7.132
C    1.708    -2.719    4.216
C    1.043    -1.531    3.905
H    3.712835201314804    4.1155266203761744    3.063286516954326
H    3.430879195804965    4.349344840656651    1.342109777957842
H    4.241287697149974    5.6026297586170095    2.277818656209509
H    2.1735683455721015    6.106216015283137    3.5193430465341864
H    1.8116719413014246    6.176091396109552    1.8088076792310177
H    0.9567269532781273    3.8800470539211913    1.8640149208880754
H    1.32854714215001    3.7392860706895323    3.5616512857736042
H    -0.47908943452421043    5.265443893247712    4.162332205984425
H    -0.518735813640977    5.908577417334614    2.525424422437599
H    -1.116471337129197    3.5090276119066632    1.7671345782683066
H    -2.655807435858817    5.630311002800997    3.125311501400939
H    -2.755131537444771    5.030761278292061    1.500495153934721
H    -4.006613479635879    3.836671230579069    3.9883004967312043
H    -4.800511471935501    4.731844103726778    2.6841118303203633
H    -4.155947966228546    3.1125903421703605    2.381260074910969
H    -0.9677585163485064    1.1382703321735361    6.426001499766962
H    -0.13955510367637855    0.8273464550311478    3.479717864415408
H    0.2645871932285614    -0.5338391699382024    7.037975135047256
H    1.4245347499486172    -2.610046751356772    7.576551090646606
H    3.198101710491939    -3.9357996525494365    7.736096401316283
H    1.808309619705595    -5.0583383991059225    7.600502457698827
H    3.4289779988556837    -5.558888042741372    7.053748462770996
H    2.1422486157717113    -3.3278879164866018    3.430338924351486
H    0.9598670352590496    -1.2321923295268935    2.8691387761494567
