44
s2_esm1_f8: ligand relaxed free at fmax 0.01, 188 steps, converged=True
C    3.329959157092737    -1.3904539595724723    1.8378366307685774
C    4.425902350210596    -0.35801806191764307    2.0813593573772953
C    5.2255177514653335    -0.0004067276881778891    0.8292638799740681
C    6.032589363326899    -1.1818591784664056    0.296027003712474
C    6.947464118454507    -0.9388257065465743    -0.9160078985515533
C    7.361689555234501    0.5049412211114941    -1.157258796213107
C    8.319736509494255    0.6542218395769515    -2.332260599540427
O    6.441973236588241    -1.557471912697908    -2.134155208109119
C    5.302406622604313    -1.1198486969983021    -2.687167597712059
O    4.602547436881432    -0.2540693725403174    -2.217187194480606
C    5.031896124729211    -1.8444942039823777    -3.9477785271640964
C    3.9360641072261786    -1.5662882010284938    -4.652241440055113
C    3.5236281710088098    -2.1696383668288988    -5.920960714442852
C    4.3455074670704095    -3.011178590724203    -6.664958909106648
C    3.923153905009128    -3.564396291747809    -7.863590872388696
C    2.6465103339528486    -3.2779982734588127    -8.340950378786712
O    2.1364756848783495    -3.765299775224616    -9.499949536478061
C    2.971933747267217    -4.588672003368945    -10.29283050719907
C    1.8093620257841534    -2.4361809988025036    -7.611611146606977
C    2.2496749424878444    -1.8899417729398498    -6.424812601570339
H    2.7195773746310046    -1.5348093667055125    2.7302184824767513
H    2.6711918508880825    -1.069414471532239    1.0281317394453002
H    3.7409137983316185    -2.3631918650429133    1.5643113596798381
H    3.9730412928127787    0.5553093534439549    2.475498151297124
H    5.106816553939752    -0.7213244786418477    2.8586618622291695
H    4.552470096002107    0.36745648776498807    0.054421397639722015
H    5.906097053302837    0.8184461277701756    1.0763878458948872
H    6.664227315589288    -1.5523021767115002    1.1107413026229556
H    5.36726853091341    -2.008076100967748    0.03813681611605877
H    7.857109491770843    -1.5232161988118542    -0.7689194450101473
H    6.478764083572865    1.1261305544995386    -1.3026055235382648
H    7.846312634845185    0.8508004515555753    -0.23942382145377966
H    8.66122493618037    1.6852715825567957    -2.425064652128564
H    9.199452704615174    0.01869836817237059    -2.207574432961643
H    7.8417117632785365    0.3762338506339068    -3.2720336735966136
H    5.75774016972877    -2.588256995943818    -4.2467581248691975
H    3.2717673413617683    -0.8120023339836424    -4.239940338601051
H    5.344805631191296    -3.237188983934093    -6.3156016081234405
H    4.594108925462606    -4.206486375395417    -8.414949813376705
H    3.259731719948937    -5.497322449192951    -9.758069074437289
H    2.3871237953539555    -4.857249452361371    -11.168032399796054
H    3.870557874362967    -4.05237778794776    -10.608260039799996
H    0.8228342582141012    -2.221235646818804    -7.999435734452146
H    1.5949602599278387    -1.2312319467188177    -5.866434155073197
