44
s2_esm1_f4: ligand relaxed free at fmax 0.01, 229 steps, converged=True
C    4.20762089812857    -6.549436635218991    5.181387776978104
C    4.406399372147636    -5.4508297392824465    6.217422096591172
C    3.737481274297295    -4.141060791351971    5.8184420371590715
C    3.8617198685285516    -3.0684809908400354    6.892885981856571
C    3.3800002841787617    -1.6952323307097623    6.446319241131126
C    3.35024073883977    -0.6696983961841404    7.568497696695754
C    2.9319605696010935    0.7176633468627751    7.099528205657446
O    2.113966482341733    -1.751099175172569    5.736584689163965
C    1.0231448586329288    -2.225131609563646    6.358882372865637
O    0.9986090936609838    -2.6062329998448286    7.5054843711376735
C    -0.1311705332907791    -2.2187781328669964    5.435023088789029
C    -1.3155528803972238    -2.672877619068402    5.842683040981682
C    -2.5475596392359865    -2.749783578008219    5.056265850211375
C    -3.674072132242626    -3.3378674857143382    5.617582199111019
C    -4.867981549108665    -3.4571471659480344    4.916092977710933
C    -4.941785387991101    -2.972602073191086    3.6168923538659077
O    -6.048052718420522    -3.0348692056249806    2.834796362542053
C    -7.20265426222393    -3.6486072288024527    3.3776386283450472
C    -3.822122836629267    -2.3692039341601623    3.0371609302541276
C    -2.6490890339124857    -2.262554478495121    3.746369838827917
H    4.687109676639619    -7.480924993770943    5.48457484644779
H    3.1453270805046363    -6.753643343125211    5.0331837405647
H    4.625044144212515    -6.2564940525586925    4.215750263365379
H    4.00622457748377    -5.7776466046430714    7.181917839741868
H    5.475895860089065    -5.276810229785457    6.372462037591726
H    4.173189052711112    -3.7790586067716614    4.879972061551412
H    2.6799718487867312    -4.330071223200422    5.611091586213864
H    3.3251164525518364    -3.375848184423782    7.791279563332648
H    4.9149610941534165    -2.9515143358978757    7.1697521115986
H    4.047483657949783    -1.333376953415749    5.659332220055187
H    2.689641833108376    -1.024904297148311    8.35922755448841
H    4.359807223953828    -0.6332735906308258    7.9880163128949135
H    1.91038894216976    0.7145529558816228    6.718182834815857
H    2.9806382786420524    1.4361196343087912    7.917670152683672
H    3.583627199748034    1.0760093075088266    6.2994683541155805
H    0.05059847367392266    -1.8459948848382837    4.436471933467874
H    -1.3747206380091004    -3.0325795471838903    6.866136735604312
H    -3.6189898807070433    -3.7187061632076    6.630652892532681
H    -5.718448240143539    -3.924458233885836    5.389958161118835
H    -7.564166807342805    -3.1060794676372465    4.2547936695824475
H    -7.9561655220043646    -3.614467986969496    2.5962895905462218
H    -7.009168950500429    -4.689802193754365    3.647827344625377
H    -3.9043980277553594    -1.9932392730171553    2.026096493765215
H    -1.7957155725439162    -1.7907970736780194    3.2771827735020693
