44
s2_esm2_f4: ligand in its bound pose, the reference for ligand strain
C    -3.246    -17.953    -1.09
C    -4.562    -18.179    -0.355
C    -4.96    -16.982    0.448
C    -6.25    -17.163    1.156
C    -6.474    -16.181    2.257
C    -7.942    -16.022    2.55
C    -8.801    -17.267    2.384
O    -5.864    -14.976    1.912
C    -6.199    -13.767    2.458
O    -7.317    -13.533    2.804
C    -5.147    -12.751    2.583
C    -3.931    -13.136    2.868
C    -2.798    -12.203    3.05
C    -1.742    -12.254    2.191
C    -0.645    -11.437    2.357
C    -0.595    -10.546    3.391
O    0.473    -9.729    3.594
C    1.71    -10.045    2.959
C    -1.661    -10.472    4.262
C    -2.768    -11.301    4.095
H    -2.4373469520792335    -17.71409955547987    -0.39260913437786665
H    -2.944400247898976    -18.829025575231846    -1.6617871663097439
H    -3.332547591971947    -17.119318701663914    -1.7874911355995988
H    -5.346050420999739    -18.421335641437118    -1.0774726087496755
H    -4.479929510706044    -19.060166529600775    0.296967395192429
H    -4.153366289930638    -16.765792643908785    1.1757658691427706
H    -5.000175358062044    -16.097110516822404    -0.1885713376260805
H    -7.055761331620435    -17.070554893144646    0.42439364040190775
H    -6.343088256280387    -18.175645303006238    1.5653433687535478
H    -5.944520507211971    -16.55358639118996    3.162230636416499
H    -8.113833170155955    -15.592642444860138    3.5334568240271724
H    -8.327797190758387    -15.291909762449487    1.8418275219924531
H    -8.489025733840272    -18.089378328576004    3.0410633654674646
H    -9.828776222963779    -17.025413890466346    2.65027252405603
H    -8.815992380599004    -17.644549075847113    1.3649185262119363
H    -5.47660418900116    -11.72137319425436    2.591300045653387
H    -3.7180483981894707    -14.188050260252954    2.664135759594015
H    -1.7640208271389293    -12.936448197974627    1.3473410228566898
H    0.16732311816062068    -11.498005573020047    1.6467839526379555
H    2.447920756413325    -9.389524925756964    3.412725309907177
H    1.9835444015104564    -11.08650636902737    3.1363991312815505
H    1.6664729218421817    -9.842613035993663    1.887215693832443
H    -1.601637694451417    -9.779432970638325    5.089779646430948
H    -3.584398108624854    -11.245375043368842    4.800654147499905
