44
s2_esm2_f4: ligand relaxed free at fmax 0.01, 333 steps, converged=True
C    -3.076776918778309    -19.030333283451146    -0.05542513861677655
C    -4.3867530363953895    -18.28606145088022    -0.2794290730280371
C    -4.889679542137134    -17.58659739874766    0.9771308496621258
C    -6.1929587522057865    -16.831605959570354    0.7490793753218562
C    -6.704174104985738    -16.115516489451903    1.9841362474741808
C    -8.043770377715829    -15.42066867931442    1.791716893597169
C    -9.20360337112017    -16.398234385276798    1.6413878368228756
O    -5.70167572348123    -15.12434493854101    2.3106834388122865
C    -5.605804217264213    -14.755519660005474    3.5999296726087944
O    -6.310581160199326    -15.196697818227511    4.476764782767222
C    -4.543530442973119    -13.759413943611287    3.8411772538210984
C    -3.7591037491161243    -13.275360231276267    2.878332587762223
C    -2.6822283081385194    -12.29482854976675    3.0285474262308996
C    -1.997903999519895    -11.870123084501802    1.8968059760001228
C    -0.9690973507050836    -10.93866850308623    1.9657048481673043
C    -0.6122012708049603    -10.41457774175102    3.201021869630018
O    0.37002990847488326    -9.499262946422961    3.3921407772104444
C    1.0790288408879956    -9.051788218696057    2.2515197587821576
C    -1.2851929163166933    -10.832578576727222    4.352362358685893
C    -2.3004768978618637    -11.755822268173812    4.264086903197523
H    -3.1888296888060292    -19.798597301550867    0.7123580481778687
H    -2.7309485728947602    -19.517897954818707    -0.9677460653164909
H    -2.293220053237512    -18.34564641292676    0.2758257820454355
H    -4.255533163321795    -17.543949072109736    -1.0733380060642366
H    -5.151673303162674    -18.983289206048237    -0.6356629463924917
H    -5.034212970211917    -18.326125819848386    1.7726356568776154
H    -4.125355311482963    -16.89256592328636    1.33736183721349
H    -6.064436257181213    -16.095207613984517    -0.05189154997868702
H    -6.9635585940721585    -17.530623941010525    0.4138618978349876
H    -6.773163861884533    -16.808794631213257    2.8260247829700664
H    -8.21778046872613    -14.786335075781642    2.662178009110705
H    -7.976143452069709    -14.765238321459274    0.9184279453768448
H    -9.248728610268067    -17.078624865024064    2.4941133617387194
H    -10.15353259880883    -15.865818313183404    1.5940445904848428
H    -9.119681496112591    -16.998328172834498    0.7348557093876282
H    -4.458756769547141    -13.460039149278774    4.877126689499298
H    -3.926255605687819    -13.632925625215845    1.8678862280066617
H    -2.2758784063902646    -12.27501352390723    0.930689480923931
H    -0.4634492017835749    -10.636761862262201    1.0604731047238887
H    1.808095666142997    -8.332232117023658    2.61224594028659
H    1.59847200887056    -9.877394401842967    1.758950668631363
H    0.41140121448479733    -8.564172080830092    1.5368918787126766
H    -0.9860768334808994    -10.41461402522002    5.3041765550373645
H    -2.80535071382705    -12.066659334632254    5.169483591313018
