44
s2_orig_f8: ligand relaxed free at fmax 0.01, 298 steps, converged=True
C    -6.79827926352637    13.349755835649118    2.424846108941262
C    -6.472569416978599    13.707778925844083    0.9808127000076221
C    -5.098957807262692    13.212797442582598    0.5456875452793547
C    -4.791493555948565    13.561830811654934    -0.9042129616609207
C    -3.3962649870596935    13.157256891288393    -1.3555440888277743
C    -3.144047599867465    13.418183002395661    -2.833463602339475
C    -1.7692165157666881    12.957683335039372    -3.2998586698499923
O    -3.0642891141871016    11.793551816029444    -0.9819956031559464
C    -3.7639206411780766    10.774798269376877    -1.5015415176765594
O    -4.700123218339843    10.903538208322853    -2.2560914504317675
C    -3.2695317052512745    9.453879478005627    -1.0614605323383794
C    -2.2242846410425217    9.290426620016104    -0.25049110095961824
C    -1.6599070138246073    8.021167671929234    0.2146103096315412
C    -2.226349855734874    6.782143929426418    -0.0696679648796847
C    -1.648890410493281    5.602618353542192    0.37320857624013104
C    -0.47377601543316056    5.64863755487789    1.1197499569849698
O    0.17468586085217008    4.55512543889979    1.5928436628556908
C    -0.3685967442553297    3.28416477911675    1.2857998497637717
C    0.10401034668295109    6.879701262048524    1.4221292124819602
C    -0.48677020988067793    8.042245787548461    0.9749877327821541
H    -6.073292514855665    13.792332365860137    3.111331444496626
H    -7.788967988722668    13.704758985855598    2.710893165176413
H    -6.775007094247251    12.26796463406881    2.5725066996753583
H    -7.230379470564678    13.282909173258304    0.31545595184167774
H    -6.524102749900147    14.793189662372267    0.8486177759912075
H    -4.330990949164478    13.639331949311293    1.2017152774930178
H    -5.050184740059714    12.128245176376197    0.6820111445562252
H    -5.534054929007886    13.108941404079571    -1.5620645228482721
H    -4.860488212238653    14.64672033654002    -1.0388800337238984
H    -2.6623672770923474    13.719491528908861    -0.7711501855489601
H    -3.926442209196971    12.940653602412521    -3.4229419639462177
H    -3.245551833389607    14.497293354530566    -2.9800120685599736
H    -0.9753958275285982    13.403834346456842    -2.6963959913358355
H    -1.6694253957417917    11.873986520089042    -3.2277641967187107
H    -1.5984489398493662    13.23782674963799    -4.339403832953601
H    -3.8289622704240216    8.625484454151705    -1.4755956508368449
H    -1.7202683829493164    10.183720418065082    0.10282370310027535
H    -3.141237438104017    6.724707948945517    -0.645341670384316
H    -2.1204695916662244    4.660973485901185    0.13380374318062405
H    -1.3664728881231056    3.1642609922253375    1.7154722193916658
H    -0.4154897176453433    3.1238290247139404    0.2059086593034527
H    0.30380103044413653    2.5551706432852286    1.7284416357884682
H    1.014133998031888    6.897952269008789    2.006275423808219
H    -0.030860538486797387    8.995919084297652    1.2133040380960116
