44
s2_orig_control: ligand in its bound pose, the reference for ligand strain
C    4.995    -3.358    1.051
C    4.942    -3.064    -0.423
C    4.773    -1.582    -0.719
C    4.89    -1.283    -2.175
C    4.555    0.131    -2.59
C    4.543    0.15    -4.1
C    4.67    1.475    -4.757
O    5.52    1.027    -2.037
C    5.108    2.227    -1.512
O    3.96    2.533    -1.56
C    6.143    3.092    -0.899
C    7.415    2.722    -0.782
C    8.48    3.585    -0.155
C    9.809    3.269    -0.364
C    10.83    4.04    0.204
C    10.526    5.135    0.988
O    11.49    5.926    1.565
C    12.855    5.574    1.453
C    9.203    5.458    1.199
C    8.175    4.686    0.631
H    4.1674033740790986    -2.8730708038838886    1.5755458312282353
H    4.9381421553753775    -4.426796176314037    1.2594547389209403
H    5.917248384796077    -2.9827655400751087    1.4975939399523863
H    5.851791987429441    -3.430398961921846    -0.9094881330938528
H    4.109668819053993    -3.6042311256031363    -0.8864253105951118
H    3.793319607726264    -1.2541287848831735    -0.35130953248320546
H    5.518143615072163    -1.008830425788073    -0.1552147941081917
H    5.902520979241315    -1.5141571622385726    -2.5251613990259365
H    4.205240823982828    -1.930985904706714    -2.73106812658697
H    3.571478040208287    0.40822022482438647    -2.2057330651761395
H    5.371124846525861    -0.4804119515841898    -4.445794606917867
H    3.6254781763368693    -0.3619293429601787    -4.404764354931745
H    5.545925381830231    2.000309612008064    -4.38230545091414
H    4.771051013503028    1.3832175483219782    -5.836195346682104
H    3.8234565683074218    2.1252517336658685    -4.541797397966445
H    5.758754556437367    4.063081728064536    -0.6112066071742531
H    7.726297934999469    1.749026490418147    -1.1429364403332298
H    10.078106598130649    2.390317060124808    -0.9369305996690441
H    11.858688572146223    3.7526018007704427    0.03449392875224481
H    13.406553938505274    6.365807933849687    1.9455979609746967
H    13.057589582037187    4.619694456082261    1.9454145654377861
H    13.17807720629148    5.521228705208383    0.41061693092782064
H    8.947855561696281    6.3330142355110794    1.7822932623581973
H    7.153806726586529    4.991937751845143    0.8124803499178592
