44
s2_orig_f12: ligand relaxed free, 24 steps, converged=True; against _ligand_bound.xyz this is the strain
C    -10.061364148832466    3.5405523213887427    -1.596904985560251
C    -8.74665222660046    4.262700624679789    -1.8732666862330372
C    -7.923184136144144    3.5713920035250806    -2.95872368946028
C    -6.645195515731348    4.328106122954135    -3.308077747890274
C    -5.778963468762849    3.708144464061788    -4.399393958142451
C    -6.532956998799237    3.4573511933134697    -5.696638805979893
C    -5.662311476093709    3.049134943865418    -6.878305360432832
O    -5.207771971223581    2.4271625508432235    -4.0081306491205355
C    -4.030682061123104    2.468491004706531    -3.3543194269693797
O    -3.6148297952813984    3.455988391231315    -2.797485214524725
C    -3.2372468990681487    1.2194346370228737    -3.477901255972524
C    -3.654545721783066    0.10910598433989853    -4.084566710886816
C    -2.783012481219678    -1.0167488882713478    -4.472886312664358
C    -3.1951527888974085    -2.34589716647993    -4.337904678330102
C    -2.413404228892537    -3.3885066576183283    -4.7912432526956215
C    -1.2077665627512222    -3.126728924693701    -5.444424685482139
O    -0.5243600908605461    -4.205107918987164    -5.909621380359438
C    0.5726660932236838    -3.969563746150955    -6.77368609654497
C    -0.7899541682658278    -1.8134020830158397    -5.604402683670566
C    -1.5685621090119457    -0.7760538459166403    -5.104946025393842
H    -10.648809028127385    4.0461664082484505    -0.8291167625522049
H    -10.670469354508159    3.492403112516455    -2.50252459159548
H    -9.885751694946897    2.515476894152328    -1.2635964585457538
H    -8.958469925674017    5.29331580936505    -2.177342474674509
H    -8.155189540416977    4.332224760304305    -0.954971123972352
H    -7.6711555268061975    2.55835111366709    -2.62821633835915
H    -8.55101734524292    3.4625531299670094    -3.849418046250907
H    -6.90849734071067    5.333817057715865    -3.658053220195124
H    -6.02582517156375    4.462033817566403    -2.4191255231492965
H    -4.9353871163841605    4.381215285122304    -4.570904864925261
H    -7.279900636466817    2.6806628260663095    -5.519915162434449
H    -7.0839678177648775    4.371456984288951    -5.940307158626909
H    -5.156626966263547    2.1021306253090253    -6.688063518568658
H    -6.27704397434266    2.924978556181854    -7.770909984104806
H    -4.9024684343648115    3.799565310481484    -7.104785330840547
H    -2.2292336698313457    1.307728861618486    -3.0917845149390906
H    -4.69862886454757    0.04037828816896069    -4.374790549339244
H    -4.147910648593365    -2.5578559038243838    -3.866910660162532
H    -2.7336571630494535    -4.416135849144105    -4.683551006333798
H    1.3852745625913852    -3.4419527319141494    -6.270489890128374
H    0.9248951322928821    -4.948799199545001    -7.081695727592282
H    0.26388636977299584    -3.4017120061845483    -7.654190095575637
H    0.12117182147452521    -1.5859791230455507    -6.135324239552512
H    -1.243204066821208    0.24478368862328317    -5.256659003082259
