44
s2_orig_f8: ligand in its bound pose, the reference for ligand strain
C    -7.624    13.341    1.616
C    -6.489    14.028    0.902
C    -5.49    13.096    0.304
C    -4.527    13.702    -0.637
C    -3.238    13.069    -1.027
C    -2.834    13.781    -2.289
C    -1.871    13.132    -3.193
O    -3.184    11.693    -1.343
C    -3.955    10.651    -1.064
O    -5.117    10.842    -1.099
C    -3.354    9.343    -0.714
C    -2.059    9.1    -0.594
C    -1.443    7.813    -0.119
C    -2.169    6.829    0.539
C    -1.542    5.659    0.978
C    -0.199    5.463    0.772
O    0.467    4.343    1.19
C    -0.166    3.292    1.882
C    0.524    6.429    0.115
C    -0.102    7.6    -0.324
H    -7.279831175629431    12.82466316879055    2.5157954814825176
H    -8.399610598485287    14.046111608625791    1.920299750679763
H    -8.089703050763646    12.585669954692147    0.9770741524903476
H    -6.907887178691614    14.652167516660302    0.09797286358565589
H    -6.003028266271701    14.74065104773425    1.5787843129197385
H    -4.966492771018341    12.574471048660929    1.119486254764977
H    -6.044443068629467    12.31585950947465    -0.202316068734336
H    -5.095571240308134    13.916097993441216    -1.55037690849352
H    -4.228639855120189    14.69149717579286    -0.2657049200077053
H    -2.4971865150134245    13.207660830420007    -0.23226076620336253
H    -3.7475220306060724    13.949788689594799    -2.8719332788801584
H    -2.488296111571988    14.782088610085594    -2.0076645559549187
H    -0.9040803273248696    12.967887251276837    -2.701949938406839
H    -2.2249701374807533    12.170385657714533    -3.54662420134541
H    -1.6917766054509331    13.74213339101904    -4.072545590866009
H    -4.110089775290934    8.590356567712071    -0.5267437014487234
H    -1.3594501970119308    9.900314851805149    -0.8234524301411827
H    -3.223659350147239    6.964408175915573    0.7451537694221568
H    -2.135474487309011    4.916114291761318    1.4957145070930282
H    -0.5628867820881877    3.624898156230381    2.8462869612024844
H    -0.9774611617716262    2.8488677960102082    1.2961739601086624
H    0.6012544460482604    2.541928327886758    2.0555621143442533
H    1.5722180079772365    6.272817707129032    -0.09403239557817522
H    0.507089798808019    8.333941431041554    -0.838341099684157
