44
s2_orig_f4: ligand relaxed free at fmax 0.01, 203 steps, converged=True
C    8.437454257512966    -1.066736701733497    1.7502993149572976
C    7.4338404219978464    -1.8520331060636246    2.5843988562560356
C    6.023444751959603    -1.2871817190559034    2.4778915909244605
C    5.001271007204523    -2.079563436469665    3.2827505933576817
C    3.5896513467792315    -1.5376668263317812    3.158838989564349
C    2.5494142901916534    -2.3006025656863187    3.963621289799994
C    2.7630682174779047    -2.192870047246869    5.468994191818605
O    3.257951345934378    -1.6289131046520673    1.7537999635316657
C    2.387873748018107    -0.7288767130236117    1.265270866404714
O    1.817720797844777    0.09033339583528745    1.9462186731779128
C    2.214943036394717    -0.830562759973404    -0.1976586220527771
C    2.9337925677658503    -1.6536608483985904    -0.9610990563479664
C    2.870468684851651    -1.7920374115468987    -2.417000692206132
C    3.7110923198363905    -2.7054403823141038    -3.040533476587032
C    3.712510992113106    -2.8822839458219995    -4.418593629122688
C    2.8482589439285357    -2.126005145285434    -5.198864350729336
O    2.761215970617543    -2.2109399270064993    -6.549507862727747
C    3.6305657873567134    -3.1151022734002716    -7.2061164083238785
C    1.9934271534662131    -1.2025300715754492    -4.590627078775878
C    2.007636589987383    -1.0403509964035056    -3.2250390754263054
H    9.44400625826772    -1.4772128880526443    1.8362618003074371
H    8.159221554202759    -1.0805335420509679    0.6943536784243758
H    8.474180601043214    -0.022218636960020542    2.0659754406933266
H    7.426732208660869    -2.8981474252845745    2.2627333518539348
H    7.745705814083179    -1.8571283390031958    3.6334301467610963
H    6.022716933393527    -0.24545823427213032    2.8177746931848042
H    5.720801961150089    -1.2671326803787484    1.4275064275079041
H    5.002426623785189    -3.1273545198707975    2.9627425227582993
H    5.284309014990166    -2.070421746910793    4.338226718460265
H    3.5620565564934834    -0.48153840002232373    3.43913199546312
H    1.569578308555837    -1.8962865029574378    3.7051545839196933
H    2.5635972780000063    -3.3478494624997195    3.6481375896709003
H    1.934321788052354    -2.6508190065613326    6.008558059426213
H    3.677616576010932    -2.6924917704363223    5.789695514865778
H    2.8235273677126416    -1.1480308498889613    5.781018145503653
H    1.4737144935594022    -0.1513682625151182    -0.5968652924377474
H    3.6563674930738426    -2.2930723164261866    -0.46521814980391973
H    4.387801082681086    -3.2973397188613713    -2.435164882387619
H    4.3837675964724045    -3.6030481565047054    -4.861136644485631
H    4.67759632797568    -2.857851657656701    -7.026962905934334
H    3.44953499240827    -4.1441112267644895    -6.885346499910047
H    3.4141900255304662    -3.0247384187402324    -8.266575245684653
H    1.3299788610085042    -0.6230705713230379    -5.218543174820774
H    1.3403877860425255    -0.31538435467596193    -2.7773249208539865
