44
s2_orig_f8: ligand relaxed free, 58 steps, converged=True; against _ligand_bound.xyz this is the strain
C    -7.507498171067896    13.255401150928275    1.9031151145638585
C    -6.548719042091133    14.016324033363052    0.9961713041653915
C    -5.358129020984909    13.167593553272294    0.5482256028649376
C    -4.741247395573778    13.68337290570626    -0.7453407356288465
C    -3.349332001280582    13.153970429181058    -1.0673331935960702
C    -2.928594255601341    13.43352701859561    -2.504899241849415
C    -1.5881176154719463    12.797341483645386    -2.857805424342882
O    -3.1493344086126425    11.761591564681828    -0.7076585072210635
C    -3.830809027673562    10.799427414169644    -1.3468306951597233
O    -4.740747660328673    11.003005749424737    -2.114941123413959
C    -3.3284773742440192    9.446521672054285    -0.9990225660050801
C    -2.092811675120039    9.238946780738756    -0.5443055982930229
C    -1.500605260293955    7.949793495519264    -0.15131912119988228
C    -2.2489303912744356    6.937581835822965    0.44005831642819493
C    -1.6611056330072014    5.748975209172163    0.8657358522371548
C    -0.294926901048183    5.556969947035306    0.6913271509823009
O    0.39805408269188647    4.461944261169745    1.0986825517602128
C    -0.2857931534401495    3.4333831926265526    1.7882335859976342
C    0.46344714277709265    6.547236522373523    0.06413370986013796
C    -0.1290306808917634    7.728677851413989    -0.32936827446816286
H    -6.980989524122219    12.843210931598714    2.765405480244171
H    -8.302412571507396    13.898100478600037    2.284534531581135
H    -7.965443907061154    12.420636718174846    1.365707757651406
H    -7.091765170695722    14.375016951498573    0.11663213931956261
H    -6.179756004399929    14.90952189042687    1.5087066955382218
H    -4.610358562079516    13.121706611632328    1.3454941870070696
H    -5.693050315153276    12.139580559054604    0.39398010517433935
H    -5.42273734669135    13.463529124923033    -1.5679491335328386
H    -4.653571122798408    14.77419113357994    -0.6960698427684328
H    -2.6274238247562396    13.636594318359835    -0.4031033223079617
H    -3.702581359847262    13.092700312412257    -3.1968617744492334
H    -2.8764904213320253    14.522908423722845    -2.60554727534791
H    -0.8289008496370502    13.004675744350266    -2.097315329777168
H    -1.6914318261751082    11.713989115001766    -2.943297430002917
H    -1.2211387624718446    13.166146066056813    -3.815844224920726
H    -4.01061770152117    8.634228405730154    -1.2128461368368157
H    -1.4537278414943833    10.109384160521072    -0.4416358717556513
H    -3.3084250979300296    7.092074428430149    0.6103268133217957
H    -2.2676041356073093    4.994609890298624    1.347309002448164
H    -0.7056925390723393    3.789330902058361    2.731469417576073
H    -1.0761542892717177    2.9956415552044753    1.1758167783823972
H    0.4647903176110526    2.677899765722202    1.998983685226404
H    1.5215755578036754    6.372244914224444    -0.08394530392258055
H    0.4771175746891228    8.497272208293337    -0.7974512295353433
