44
s2_orig_f12: ligand relaxed free at fmax 0.01, 216 steps, converged=True
C    -9.033323950816296    2.273683089350304    -1.1180875473440068
C    -8.04941621339182    3.356966462181506    -1.539516884830695
C    -7.552295231808213    3.1766409347498303    -2.9691189315264266
C    -6.59330513391136    4.284326197455876    -3.388734368205981
C    -5.966045032472207    4.110498719345554    -4.764359605755566
C    -6.962620883444753    3.9659773602863084    -5.899652848324703
C    -6.302216420889305    4.0318165635271574    -7.270667733066511
O    -5.151173320521115    2.9111556739280555    -4.790443289115478
C    -3.901918212193823    3.0181505046110355    -4.305958576256548
O    -3.445302550549836    4.040273622994129    -3.8506917302571835
C    -3.129223556483115    1.7630265693613374    -4.388696247632943
C    -3.6017408808951585    0.6284604545178414    -4.904271602218046
C    -2.8841273291812914    -0.6443375605093453    -5.023593862287075
C    -3.556504822726599    -1.7559178550898518    -5.540293035500326
C    -2.932530475357862    -2.978277933338934    -5.673867468503267
C    -1.6013412568260015    -3.123153656748489    -5.289656141300854
O    -1.0640974156993883    -4.357150646077523    -5.459090118915815
C    0.2955979057970953    -4.538701086349667    -5.107541582715491
C    -0.9103256924179848    -2.0304107082159066    -4.771793072893813
C    -1.5541980448905202    -0.8096169487119044    -4.64640039544145
H    -9.365981529043278    2.4109002315766035    -0.08858343859784429
H    -9.91785131925357    2.2807553619038474    -1.7584677741211252
H    -8.57925344539379    1.283351241463803    -1.1930313595804214
H    -8.522015447585733    4.3395758469953485    -1.4434764442697816
H    -7.192118915744637    3.36385594098912    -0.8598013139293682
H    -7.053989434268384    2.2061010617869665    -3.0594866878136093
H    -8.414029417417602    3.1476886859138147    -3.6434156191993985
H    -7.116742513417422    5.2460952454597365    -3.3848131131759454
H    -5.785694680598543    4.371357532502959    -2.6580449289478025
H    -5.303848613499932    4.956608206023952    -4.9574830948269035
H    -7.49890777329359    3.021236971208483    -5.783866859858114
H    -7.702526313307834    4.765159523126356    -5.798643740781148
H    -5.561325881346547    3.2397627873563666    -7.384160407134941
H    -7.036316319403506    3.922641252538779    -8.069242568958254
H    -5.793774754056556    4.987857709411693    -7.411089333875465
H    -2.1278093444287065    1.851265915238719    -3.989222423125185
H    -4.621174779264095    0.6296393844608309    -5.276723207150137
H    -4.591952869192634    -1.65208282707602    -5.842896794450743
H    -3.452876504910146    -3.8369997030433174    -6.076083501373403
H    0.45553675976    -4.3712298013231035    -4.039515102947713
H    0.533476815467785    -5.570682908011369    -5.3487762536778245
H    0.9458920507426943    -3.8740331355463007    -5.681371185753989
H    0.1223100017189506    -2.1174061867613783    -4.46724437861757
H    -0.9961554852607096    0.02753347658590047    -4.247598008405135
