44
s2_orig_control: ligand relaxed free at fmax 0.01, 121 steps, converged=True
C    4.898280829496328    -3.1250791182571276    1.1919881862794348
C    5.075329800767128    -2.9356829869118606    -0.3087976334650853
C    4.815401560238306    -1.502582537780658    -0.7555236076353532
C    5.036590072741387    -1.304896858471333    -2.249250474676302
C    4.695508299653335    0.09217401353004503    -2.7312652919076625
C    4.8864953404467    0.2786148812290824    -4.2258687632548915
C    4.4939944816733215    1.6688969370686686    -4.708686100298954
O    5.57965656066499    1.0151440752982683    -2.050526938061348
C    5.030572851355608    2.024818576381419    -1.3505752950942223
O    3.841910799968314    2.2154931902009323    -1.2528606488264291
C    6.035956980145911    2.8918130374811217    -0.7040826614976347
C    7.350645034835023    2.6861127190191696    -0.7829139470890837
C    8.405080552191189    3.5027102556115635    -0.17754689283517563
C    9.73132039243102    3.1263729968700553    -0.3490380683688428
C    10.779931707504044    3.858983125031286    0.19431027138327148
C    10.498087924998371    5.002809382935331    0.9291882738928887
O    11.434560023828242    5.798195132296976    1.5032324002717183
C    12.793719345031652    5.442098967885737    1.3290963268606326
C    9.170414138145338    5.398009954236502    1.1130696040352288
C    8.146057825739437    4.659657934428239    0.5690663008776735
H    3.886930098837702    -2.8536620822056675    1.5015621613864094
H    5.072753289998663    -4.16000683256291    1.48870945380735
H    5.5937582988145955    -2.494571012655476    1.7499522553893836
H    6.09008814181063    -3.2244841295995474    -0.6004455999723014
H    4.400839148664461    -3.6090617827636016    -0.8472653366766549
H    3.788730152167181    -1.2194636806981112    -0.4989864551277002
H    5.468498595427398    -0.8247284398467224    -0.19762853826715715
H    6.077801663527574    -1.527856533078046    -2.506473796256417
H    4.4157340025418925    -2.011288803233292    -2.8092990523868315
H    3.672542159761447    0.34720434101611813    -2.450645022694082
H    5.93189757885908    0.06989792283171685    -4.472449155871316
H    4.283922357558175    -0.4783514701241026    -4.734945701943853
H    5.1122709544704055    2.435896544330284    -4.240544757760019
H    4.616416217304754    1.757274716363253    -5.788421214667153
H    3.453044309272199    1.888474299637376    -4.465625044326575
H    5.601531654923196    3.716724675964566    -0.15548442999769724
H    7.692258332289329    1.8285590079892249    -1.352924118106689
H    9.9564699492938    2.2344982849919037    -0.922449290449249
H    11.79612333009126    3.5292130576740006    0.03790514918834889
H    13.372320864598537    6.205976155159043    1.840307717953495
H    13.008367954111302    4.466578498715706    1.7730813263514735
H    13.067331389463789    5.428191212062843    0.2709932311825868
H    8.973726283022238    6.291985770763644    1.689206634273775
H    7.126853897158376    4.988339380834169    0.7240153514314958
