44
s2_orig_f4: ligand in its bound pose, the reference for ligand strain
C    8.331    -1.271    1.482
C    7.412    -1.805    2.575
C    5.96    -1.459    2.315
C    5.03    -2.076    3.315
C    3.593    -1.663    3.121
C    2.774    -2.227    4.274
C    2.76    -1.321    5.515
O    3.162    -2.144    1.865
C    1.938    -1.812    1.329
O    0.995    -1.52    2.021
C    1.843    -1.841    -0.15
C    2.953    -1.917    -0.876
C    2.964    -1.854    -2.377
C    3.567    -2.868    -3.09
C    3.624    -2.827    -4.487
C    3.082    -1.768    -5.176
O    3.11    -1.686    -6.551
C    3.658    -2.754    -7.306
C    2.48    -0.75    -4.473
C    2.422    -0.789    -3.07
H    9.358547618966396    -1.6059674440217981    1.6285981530601852
H    8.007824407002422    -1.6189222415246671    0.5017294446040259
H    8.334580783326333    -0.18037530513874267    1.4674531312342782
H    7.5131332954294265    -2.894020169300333    2.6356668370213345
H    7.718844233334995    -1.417556168105972    3.55200639839049
H    5.83755786141272    -0.3689216386439523    2.313900200371292
H    5.686993257959166    -1.7928558660707552    1.308902620869704
H    5.081512459725464    -3.168304810193653    3.262828251636379
H    5.321436557705985    -1.790433196636282    4.330231953965765
H    3.5042457838635017    -0.5689389876544497    3.111209357179322
H    1.7489642119556992    -2.3821295858509006    3.9450802988741804
H    3.174258241581577    -3.212524466022066    4.5343566484952325
H    2.181123794915405    -1.7721966898004509    6.323394805648674
H    3.7633335426347743    -1.1380691270843424    5.904045672475423
H    2.310905142039978    -0.35466726110777436    5.278950914142275
H    0.8485312567783614    -1.7255615331012584    -0.5610096654583708
H    3.8994558989541086    -2.0742872685067026    -0.3699147436569967
H    4.022103914945313    -3.7063307765444744    -2.575214371354511
H    4.103405772169034    -3.653031066689472    -4.985684962108044
H    4.428617410260662    -3.3093530590326132    -6.778180994266792
H    2.862976726409701    -3.4299192220089614    -7.626736486065599
H    4.113389328692387    -2.2986888709117337    -8.183740271198397
H    2.0433015541860122    0.08407517687015856    -5.0103216248349165
H    1.946697760170565    0.015345867182663423    -2.538944256681729
