44
s2_orig_control: ligand relaxed free, 25 steps, converged=True; against _ligand_bound.xyz this is the strain
C    4.986606292455446    -3.377314676619978    1.1446750122185074
C    4.939910480089431    -3.0475236470803577    -0.3435323016470663
C    4.784345605145449    -1.5594450228848704    -0.65929019436061
C    4.909610347601064    -1.2960645960016055    -2.1581876525830626
C    4.599278634527534    0.1157357915592441    -2.6276283587351976
C    4.6418329221296135    0.22028593975450322    -4.151744764834605
C    4.654116214504641    1.6349799493054344    -4.724349727119623
O    5.574395173927523    1.0044492871153106    -2.027506628959477
C    5.115750592173269    2.185428616635141    -1.5710320641515605
O    3.9615035298252734    2.5331693133840663    -1.6485278160224712
C    6.150545991409058    3.0308370937064453    -0.9446337833476145
C    7.435228710525229    2.7006053899060865    -0.821742991945732
C    8.463238998946046    3.5289568104043525    -0.1847683607084242
C    9.80136775064643    3.200593895810515    -0.34613469414668885
C    10.819961047344858    3.9665307064499533    0.20767983898231263
C    10.501733737930728    5.091323861300309    0.9544821331282262
O    11.41524267084677    5.907619478242916    1.5377480873499147
C    12.784557447379454    5.563952447889855    1.4218596373151235
C    9.158906649205495    5.428258558692468    1.145838352793668
C    8.164236810998048    4.660453079127479    0.5852463866568225
H    4.109065979261534    -2.9968131606302144    1.6726004938883356
H    5.018340080686022    -4.457605305513901    1.2931318190363519
H    5.87315562889858    -2.951737854207205    1.6196923341867024
H    5.855156892979195    -3.416553683562452    -0.8204759175300941
H    4.1103225652798185    -3.5929372362084013    -0.8068071174784603
H    3.813509434667158    -1.205055995662841    -0.296793291050284
H    5.540702027487873    -0.9805266718610779    -0.12149407753236605
H    5.91926857056553    -1.5612316102608852    -2.4876781080250603
H    4.233401052551502    -1.9649113398621143    -2.6995583139658823
H    3.6233309079803253    0.4343209603160114    -2.26519938025889
H    5.517133807002615    -0.32185768470027937    -4.522547920154485
H    3.765111801114206    -0.3215014897552482    -4.521002392208629
H    5.54911727575287    2.1779537529734285    -4.411482986409877
H    4.658983288879823    1.5866785996967854    -5.815461126902019
H    3.7835582964294834    2.211622417196145    -4.410899073164806
H    5.7623178579634065    3.9738376695717976    -0.5812218429264889
H    7.770073102043902    1.7517005847001725    -1.2302571431391156
H    10.059692468562186    2.332749779896386    -0.9396951108039857
H    11.848004211027906    3.683433943535935    0.0451146445291988
H    13.331580578089852    6.328225503276261    1.9654334696845592
H    12.992366316057037    4.58712230634913    1.8646393141603297
H    13.109835660522998    5.561937781816884    0.37984506918654787
H    8.91926163036435    6.292486035151412    1.7501608734077925
H    7.134065313419097    4.934833331752952    0.7666659858506947
