44
s2_orig_f4: ligand relaxed free, 42 steps, converged=True; against _ligand_bound.xyz this is the strain
C    8.306634471075697    -1.2259389016070918    1.459897741296099
C    7.367079044068803    -1.8059141210225262    2.50589752506701
C    5.91320344231326    -1.4131040472898937    2.2844440035833102
C    5.00490203094966    -2.059996908474447    3.3183063037755542
C    3.5463134405524244    -1.6686928259549698    3.1990368368030206
C    2.6816702821180334    -2.295913516362701    4.283488931647842
C    2.7026558221385817    -1.4501579670181621    5.554128579615285
O    3.135941799010899    -2.0982640298990103    1.8768383485183517
C    2.116460111878237    -1.4184884683636765    1.326702526297482
O    1.4028832269796252    -0.6634492920480507    1.9434593879451163
C    1.9991772857716008    -1.6084667032222355    -0.1331528076808059
C    2.9493816175197067    -2.1408004963048812    -0.9017632123874538
C    2.963415274499764    -2.0680629689028724    -2.3685800602320244
C    3.6322256403503195    -3.0171475773011336    -3.1316754587417517
C    3.6913717139009465    -2.921723450990349    -4.516296599967865
C    3.0783994937938304    -1.8499695961064495    -5.154047795814268
O    3.075219581852118    -1.6602682317745279    -6.497241533416735
C    3.6588858305765424    -2.6713742264676807    -7.294572608979434
C    2.4285755103246873    -0.8716892762248527    -4.402353259600309
C    2.377567660222039    -0.9815217235267536    -3.0311443557190065
H    9.347915543948236    -1.4801900755774866    1.6645740342994275
H    8.056622871024238    -1.6056715410006082    0.4668262000840474
H    8.231783600447622    -0.13633464735070758    1.4356959771239615
H    7.449094599947251    -2.897737934344487    2.512274971403256
H    7.679079933800208    -1.473579493928299    3.5000745362109833
H    5.818641436640088    -0.32166814225622303    2.329371569792442
H    5.598563690072292    -1.7109105826244768    1.2790154518942727
H    5.068540342017453    -3.1495787717183075    3.225474187905783
H    5.35549517424582    -1.8090420412168908    4.32572146045746
H    3.4283436025136265    -0.5809213491361122    3.2346593129949723
H    1.6589540890292307    -2.3821396755188884    3.915415691896301
H    3.0499981678955344    -3.3062504721915005    4.487648153290397
H    2.1472198373972495    -1.926818885290962    6.362155972473116
H    3.722817366239158    -1.287689565570985    5.9112757784291485
H    2.2490529226266145    -0.4736253202548773    5.3688861728482555
H    1.109480013068406    -1.164853032736726    -0.5596437908053209
H    3.7997389714304006    -2.617989960250397    -0.4253716657819333
H    4.114946709795976    -3.8544122383460375    -2.639871450072436
H    4.223595651072958    -3.67338780144726    -5.079389457572903
H    4.727015019580671    -2.77303538107948    -7.087720681741349
H    3.1582735373054653    -3.627113348431    -7.125000553675787
H    3.5203738829594724    -2.3632550861950894    -8.32660595014197
H    2.008355770609424    -0.017695432955426547    -4.917496750330091
H    1.9138741366868    -0.1907885880835544    -2.4547344134734734
