44
s2_orig_f12: ligand in its bound pose, the reference for ligand strain
C    -9.977    3.549    -1.674
C    -8.673    4.268    -1.96
C    -7.851    3.546    -3.006
C    -6.546    4.273    -3.299
C    -5.757    3.659    -4.425
C    -6.593    3.432    -5.677
C    -5.755    3.041    -6.872
O    -5.205    2.413    -4.055
C    -4.155    2.336    -3.198
O    -4.04    3.077    -2.261
C    -3.213    1.25    -3.475
C    -3.647    0.149    -4.033
C    -2.757    -0.946    -4.492
C    -3.183    -2.242    -4.319
C    -2.424    -3.302    -4.795
C    -1.236    -3.065    -5.441
O    -0.533    -4.145    -5.897
C    0.538    -3.973    -6.798
C    -0.797    -1.779    -5.599
C    -1.558    -0.716    -5.125
H    -10.549206616923437    4.023369241166428    -0.8721232442231753
H    -10.60114367650568    3.537577019262694    -2.573103654550613
H    -9.810076161409418    2.504921311537351    -1.3889115545870538
H    -8.90134860347398    5.273471505758564    -2.328438273467175
H    -8.083399029255252    4.445424102837533    -1.0600906968615664
H    -7.632782857087446    2.5168194093956635    -2.685454955232339
H    -8.458686691251351    3.4535789276698994    -3.910204600983732
H    -6.774549156549266    5.307393655059535    -3.5812267397304676
H    -5.925289748571391    4.331168814705286    -2.406693919527462
H    -4.925935654251299    4.334243744592396    -4.664061890175203
H    -7.324337688638174    2.646907715550202    -5.474653192015581
H    -7.141877992635617    4.358081965523682    -5.874647405985142
H    -5.289131366876918    2.067531932169742    -6.713815825608466
H    -6.356541941700809    2.979558901215514    -7.780937380673295
H    -4.956863329891709    3.7666167854643713    -7.049001003667082
H    -2.1757962887255324    1.4447184578504926    -3.244088756165451
H    -4.711689156976787    0.011095820270223777    -4.197644208976168
H    -4.116939677211058    -2.4422017851768842    -3.806722696817559
H    -2.744736048292483    -4.322995086771724    -4.635474422423265
H    1.3615792526312143    -3.403761713860552    -6.354455398278914
H    0.8898985808473823    -4.972670943264522    -7.041344095185888
H    0.21378464237290204    -3.4672352117344873    -7.71307152463612
H    0.13306363549744285    -1.5700810148751931    -6.112867273787926
H    -1.2292315903643911    0.30382923558917974    -5.29544317180356
