44
s3_esm2_f12: ligand in its bound pose, the reference for ligand strain
C    7.763    1.554    -7.686
C    6.901    2.553    -6.924
C    5.879    1.859    -6.057
C    5.058    2.862    -5.313
C    3.921    2.273    -4.504
C    2.866    3.355    -4.343
C    1.481    2.86    -4.094
O    4.367    1.888    -3.213
C    4.618    0.582    -2.884
O    4.53    -0.314    -3.677
C    4.998    0.376    -1.475
C    5.123    1.413    -0.649
C    5.427    1.341    0.803
C    5.356    2.49    1.554
C    5.62    2.477    2.905
C    5.962    1.308    3.538
O    6.224    1.25    4.864
C    6.113    2.415    5.666
C    6.037    0.145    2.802
C    5.772    0.159    1.434
H    8.297757629105721    0.8996918373223961    -6.995930679229529
H    7.1486223686752695    0.9211005251017752    -8.32892517505285
H    8.502243537567665    2.0495911589298266    -8.314566820359842
H    7.5364882319019015    3.1900442378450107    -6.300530063908372
H    6.390365973806477    3.2179125759550407    -7.629286930313389
H    5.226367785394827    1.2356028183214918    -6.677800117073812
H    6.378560879703709    1.174251607518563    -5.36543441448357
H    5.684916559764969    3.4591442317538594    -4.641448950429794
H    4.640995524369158    3.5555857903978887    -6.048962605116563
H    3.5054824209528146    1.3990924226835773    -5.014243021067772
H    3.2094350553661943    3.9938162325217217    -3.519675844787798
H    2.8772868160709315    3.9732971936194663    -5.2430064184163605
H    0.8930010709961749    3.5292829700208532    -3.457962851360187
H    0.9262464604992825    2.728322360415341    -5.024842218326778
H    1.480356825248414    1.8909503144252626    -3.593770251770376
H    5.138634579026474    -0.6594948230787501    -1.197572718063508
H    4.949604845359415    2.4066958608479134    -1.0450672108423926
H    5.100537337570831    3.42736883376184    1.072436728064945
H    5.564896338171674    3.4081060369454765    3.4533038336381963
H    6.399507210253566    2.101968528993142    6.66792197290627
H    6.79397766207898    3.199165531193435    5.325786065818896
H    5.083936126564132    2.7957786736339747    5.66592771452781
H    6.306651972830819    -0.7842196094764584    3.2920787258089512
H    5.859528707481387    -0.7673544724887316    0.8829402046884816
