44
s3_orig_f12: ligand in its bound pose, the reference for ligand strain
C    -7.524    -4.442    4.297
C    -7.818    -3.517    3.136
C    -6.572    -3.196    2.351
C    -6.84    -2.309    1.18
C    -5.682    -1.408    0.781
C    -5.907    -0.86    -0.616
C    -7.26    -0.184    -0.808
O    -4.527    -2.042    0.841
C    -3.567    -2.793    0.62
O    -3.608    -3.501    -0.353
C    -2.456    -2.787    1.6
C    -1.397    -3.582    1.47
C    -0.303    -3.691    2.468
C    0.577    -4.758    2.395
C    1.56    -4.93    3.363
C    1.718    -4.01    4.379
O    2.69    -4.131    5.351
C    3.094    -5.437    5.718
C    0.879    -2.928    4.417
C    -0.129    -2.768    3.467
H    -8.326443249283306    -4.4421796561378395    5.046572772510685
H    -7.406732500078565    -5.477614252990441    3.9684886167232625
H    -6.5764034117874735    -4.168126837640381    4.7762011986593285
H    -8.588558295020617    -3.945844938240771    2.4921497023411407
H    -8.235100246211847    -2.5714187924176186    3.4970533669568926
H    -5.860417937591624    -2.702781897156771    3.0343728374161074
H    -6.068563003911854    -4.116302817815398    2.035679846640739
H    -7.126610389713262    -2.914133712912157    0.3120867751222107
H    -7.68904541574011    -1.6548040140993487    1.4014442819494188
H    -5.635079263914887    -0.579763170423234    1.4972138553470642
H    -5.1072269259693135    -0.1515933432632965    -0.8418527108268472
H    -5.798401140880543    -1.698085179725137    -1.311400836615036
H    -7.4056897294349975    0.6473509326800262    -0.11345693894612267
H    -7.324034168733525    0.2332816887577085    -1.8104289316720963
H    -8.09049889047828    -0.8821682473910706    -0.6891184558933737
H    -2.571596789808391    -2.1301367564172575    2.4561571450708035
H    -1.3459249086364093    -4.2221274612888395    0.5957665206757958
H    0.4677235901779393    -5.494188466404839    1.605162822375097
H    2.2519347490579475    -5.757028994857355    3.278348740995395
H    3.685531623057383    -5.328820779448777    6.622609517926606
H    2.228335596194068    -6.075565882156077    5.922024866506513
H    3.707758833550115    -5.894136929305091    4.939379271856653
H    1.0140403093012378    -2.193502566081313    5.199186760833442
H    -0.7453933862257439    -1.8791888002983854    3.5180158818781977
