44
s3_orig_f4: ligand in its bound pose, the reference for ligand strain
C    -7.654    -4.916    5.511
C    -6.527    -4.149    6.189
C    -5.211    -4.685    5.733
C    -4.025    -3.882    6.203
C    -2.849    -4.794    5.978
C    -1.619    -4.584    6.841
C    -0.99    -5.987    7.0
O    -2.528    -4.816    4.62
C    -1.828    -4.28    3.694
O    -1.238    -3.242    3.898
C    -1.84    -4.977    2.365
C    -2.889    -5.032    1.563
C    -2.9    -5.662    0.188
C    -1.739    -5.934    -0.515
C    -1.791    -6.53    -1.785
C    -2.997    -6.856    -2.36
O    -2.981    -7.444    -3.608
C    -4.209    -7.935    -4.125
C    -4.158    -6.579    -1.667
C    -4.107    -5.982    -0.401
H    -8.612262224777835    -4.785683561046871    6.013906822881724
H    -7.774846190151253    -4.590133414480627    4.476733223491239
H    -7.432388301594331    -5.9843476679722905    5.492770443931398
H    -6.613710552435667    -3.0809099308472656    5.964844676972278
H    -6.601762386716353    -4.238797593874778    7.277120533203556
H    -5.1273153155608    -5.711083919986514    6.10266769456649
H    -5.193658615388441    -4.75685841598799    4.639837826351095
H    -3.9038364291008527    -2.935351909328275    5.672473030510515
H    -4.112216504638514    -3.668273269954942    7.271923673273298
H    -3.200766884003947    -5.805296855799748    6.17092102551227
H    -0.9458392739246873    -3.85760320957119    6.388890988741792
H    -1.9299973923853269    -4.190926935989746    7.808989844268276
H    -0.851582698269422    -6.262745325068613    8.044990005351526
H    -1.6048370490080284    -6.764099454692764    6.54607332879898
H    -0.001416734604913518    -6.048394860086764    6.541004301223498
H    -0.8682370889181605    -5.343150825340515    2.0491459416586566
H    -3.841870214974454    -4.6345969767074955    1.9039662274830993
H    -0.7714388780654254    -5.71565574483305    -0.07795250390367567
H    -0.8756659029818625    -6.744232862809458    -2.3219233322554653
H    -4.6497676758399615    -8.674549576653064    -3.4494546839583107
H    -4.906583727665405    -7.11361918513663    -4.314049786274932
H    -3.9485854995754024    -8.407286302836749    -5.069395112090053
H    -5.121873376973256    -6.801108308167565    -2.101861601519776
H    -5.03421644576299    -5.7723805336385166    0.11880990655055251
