44
s3_orig_f8: ligand in its bound pose, the reference for ligand strain
C    4.253    8.561    -7.24
C    4.947    7.624    -8.176
C    4.454    6.217    -8.093
C    5.06    5.284    -8.997
C    5.217    3.805    -9.069
C    4.478    3.319    -10.3
C    4.408    1.853    -10.505
O    4.724    3.103    -7.98
C    4.225    2.95    -6.83
O    3.181    3.529    -6.61
C    4.865    2.052    -5.826
C    4.622    2.175    -4.529
C    5.143    1.318    -3.425
C    5.842    0.153    -3.65
C    6.314    -0.61    -2.587
C    6.085    -0.224    -1.285
O    6.573    -1.014    -0.265
C    6.314    -0.636    1.072
C    5.381    0.935    -1.054
C    4.912    1.697    -2.119
H    4.3704601979515525    8.246263902794693    -6.199270640834741
H    4.645738069371994    9.574697361650365    -7.32530774599488
H    3.180943045384126    8.603754551529605    -7.441727984702498
H    4.841449144652954    7.986972891952127    -9.206351110724396
H    6.026852778639713    7.632353703817551    -7.978826721099616
H    4.588607408599814    5.902242220948394    -7.049043003994422
H    3.3614200695592613    6.216654747672187    -8.195285788703792
H    4.690797100071284    5.568611703220094    -9.991346575459966
H    6.105358231647655    5.638748203832054    -9.068494488606584
H    6.275108545301493    3.5384243138203813    -9.142151888346444
H    3.467295317094849    3.7352199015482563    -10.236242058681524
H    4.952615663960399    3.8026656858316854    -11.158196841244276
H    3.934825030758115    1.3517354589924941    -9.658813733827078
H    3.8245724885427097    1.611774816994383    -11.39389447311026
H    5.3984660605794295    1.4082910602126857    -10.63672891525717
H    5.585523723656063    1.341388104190767    -6.21703841831644
H    3.8903894652418542    2.8596867277680187    -4.166013024226674
H    6.00910922442204    -0.20251080597931312    -4.658126663646011
H    6.846560838440364    -1.53229925171546    -2.7824330298407545
H    6.757644986421024    -1.381716019731865    1.719154738226635
H    6.756380949441896    0.3397641399950836    1.2960770189882627
H    5.242621841101618    -0.5841994294631464    1.287572331806456
H    5.11265607058322    1.2425650221386342    -0.0496067685724479
H    4.343113607843832    2.599013821365031    -1.9119814962985981
